200
Lattice="22.439999882102857 0.0 0.0 0.0 22.439999882102857 0.0 0.0 0.0 22.439999882102857" Properties=species:S:1:pos:R:3 connectivity="_JSON [[0, 1, null], [2, 3, null], [4, 5, null], [6, 7, null], [8, 9, null], [10, 11, null], [12, 13, null], [14, 15, null], [16, 17, null], [18, 19, null], [20, 21, null], [22, 23, null], [24, 25, null], [26, 27, null], [28, 29, null], [30, 31, null], [32, 33, null], [34, 35, null], [36, 37, null], [38, 39, null], [40, 41, null], [42, 43, null], [44, 45, null], [46, 47, null], [48, 49, null], [50, 51, null], [52, 53, null], [54, 55, null], [56, 57, null], [58, 59, null], [60, 61, null], [62, 63, null], [64, 65, null], [66, 67, null], [68, 69, null], [70, 71, null], [72, 73, null], [74, 75, null], [76, 77, null], [78, 79, null], [80, 81, null], [82, 83, null], [84, 85, null], [86, 87, null], [88, 89, null], [90, 91, null], [92, 93, null], [94, 95, null], [96, 97, null], [98, 99, null], [100, 101, null], [102, 103, null], [104, 105, null], [106, 107, null], [108, 109, null], [110, 111, null], [112, 113, null], [114, 115, null], [116, 117, null], [118, 119, null], [120, 121, null], [122, 123, null], [124, 125, null], [126, 127, null], [128, 129, null], [130, 131, null], [132, 133, null], [134, 135, null], [136, 137, null], [138, 139, null], [140, 141, null], [142, 143, null], [144, 145, null], [146, 147, null], [148, 149, null], [150, 151, null], [152, 153, null], [154, 155, null], [156, 157, null], [158, 159, null], [160, 161, null], [162, 163, null], [164, 165, null], [166, 167, null], [168, 169, null], [170, 171, null], [172, 173, null], [174, 175, null], [176, 177, null], [178, 179, null], [180, 181, null], [182, 183, null], [184, 185, null], [186, 187, null], [188, 189, null], [190, 191, null], [192, 193, null], [194, 195, null], [196, 197, null], [198, 199, null]]" pbc="T T T"
H        1.05400000       6.54100000      12.57300000
H        0.93300000       6.44200000      11.84400000
H       16.65700000       7.83200000      22.38900000
H       17.02200000       7.41200000      21.89400000
H        5.42100000      16.79400000      12.08900000
H        5.42400000      16.79000000      12.83400000
H       18.63900000      22.13300000      13.38200000
H       18.29000000      22.10100000      14.03900000
H       13.45000000       9.57700000      11.56600000
H       13.27600000      10.03400000      12.12800000
H        9.38100000       4.41200000      14.91000000
H        9.53800000       4.49700000      14.18600000
H        1.73300000      12.50800000      11.40300000
H        1.92500000      13.21000000      11.56100000
H       10.63200000       8.55000000      13.27600000
H       10.74000000       8.46400000      12.54400000
H        8.54100000       8.24600000      13.97500000
H        8.17000000       8.39300000      13.34500000
H       12.25100000      13.45500000      15.46200000
H       12.81500000      13.54000000      15.94200000
H        7.98600000       0.07800000       0.91800000
H        8.15100000       0.80500000       0.91300000
H       20.94000000       3.48400000       3.55200000
H       20.85700000       2.80700000       3.25100000
H       10.69000000       4.07400000      18.12000000
H       10.04500000       3.72500000      17.98900000
H       15.14200000      18.58300000      12.07900000
H       14.59100000      18.70400000      11.59300000
H       14.24200000      22.32800000      20.88000000
H       14.18000000      22.41300000      21.61700000
H       19.28300000       8.79600000       1.95300000
H       18.71100000       8.88000000       1.48300000
H       10.59400000      22.19100000      14.84200000
H       10.84300000      22.43900000      14.18500000
H       16.36800000       6.10200000      11.38000000
H       15.97400000       6.65100000      11.69400000
H        4.19400000       8.65800000      19.21900000
H        4.04800000       9.38900000      19.23100000
H       16.90400000      16.48800000      12.48300000
H       17.19100000      16.45000000      13.16900000
H       14.03000000      12.95900000       9.86700000
H       13.62400000      12.36500000       9.67400000
H       12.84300000       8.34100000       5.75800000
H       12.31000000       7.82100000       5.76600000
H       22.27900000       0.00100000       2.61600000
H       22.33900000       0.04600000       3.35800000
H        0.01800000      22.19100000       6.31300000
H        0.49200000      22.43200000       5.79100000
H       12.07600000       7.56400000       8.46800000
H       11.35900000       7.66200000       8.28900000
H        3.03300000      18.96600000      10.87600000
H        3.20300000      18.75400000      11.57000000
H       20.93200000      11.44800000      16.98900000
H       20.96500000      10.75500000      16.71700000
H       17.28000000       6.35000000      14.83000000
H       16.85300000       6.82500000      15.21500000
H        4.44300000       4.50400000      21.27900000
H        4.20000000       4.24600000      20.62400000
H        1.71800000      17.65000000      18.88800000
H        1.26600000      17.41100000      18.34500000
H        9.42800000      10.82000000      10.44200000
H        9.24800000      10.91100000       9.72500000
H        1.55100000      15.36300000      12.52300000
H        1.72500000      15.65900000      11.86100000
H       18.91500000      11.16200000      14.68500000
H       19.00400000      11.13400000      15.42400000
H       20.79300000      12.94500000      15.13000000
H       20.87000000      13.41100000      14.55400000
H       22.02200000      12.84500000       7.99900000
H       21.94100000      13.09200000       8.69700000
H        3.71400000       6.01300000      14.23400000
H        3.71400000       6.32700000      13.55900000
H        2.14200000       8.13500000      14.90800000
H        1.77300000       8.37300000      14.30700000
H       13.77300000       1.33000000      14.33700000
H       13.36200000       1.44400000      13.72600000
H       19.01200000      11.67000000      12.36900000
H       18.77600000      11.05900000      12.01400000
H       15.00400000      14.24400000      11.88300000
H       15.08000000      14.88100000      12.26200000
H        0.86700000       6.71000000      16.37500000
H        0.15600000       6.87900000      16.23100000
H       13.06700000      17.75700000      22.29700000
H       13.42600000      17.94000000      21.67000000
H        3.71800000       1.13800000      12.12700000
H        3.69700000       1.13100000      11.38300000
H       20.03900000       8.71500000      14.22200000
H       20.34800000       8.86900000      14.88200000
H       10.45100000      11.08500000       5.72400000
H       10.29300000      11.39400000       6.38300000
H        3.80400000       9.94400000      10.60200000
H        3.69800000      10.58800000      10.96200000
H        0.20000000      22.14500000      15.70600000
H        0.19900000      22.43500000      16.39200000
H       16.34000000      11.24400000      11.27600000
H       16.69000000      10.61200000      11.09500000
H       15.81300000       8.79800000      11.50600000
H       15.45000000       9.19800000      12.01900000
H        7.99800000       6.02300000      11.41800000
H        8.44400000       6.47500000      11.02800000
O       13.07000000       0.78100000      17.66600000
O       12.23600000       0.77800000      18.52400000
O        1.15500000      21.92600000       8.20100000
O        0.13200000      22.09900000       8.79700000
O       16.89300000       1.64200000      14.39300000
O       16.96700000       1.66700000      15.58700000
O       15.19800000      20.42100000       0.19400000
O       15.63000000      19.73300000       1.07100000
O        6.68200000      12.78400000      15.58200000
O        6.38000000      12.43500000      16.68600000
O       11.14100000      21.61300000      20.80000000
O       11.83700000      22.42500000      21.33500000
O        5.42600000       0.70900000       4.72100000
O        6.30900000       0.39600000       3.97800000
O       16.93000000      17.76700000       5.36100000
O       16.88500000      17.78400000       4.16600000
O        8.07500000       4.97900000      21.73100000
O        8.02300000       3.81400000      21.99800000
O       21.96700000      14.53400000       1.32400000
O       22.36100000      14.93500000       0.26900000
O       14.78900000       9.63600000       8.07300000
O       13.86900000       9.60300000       7.31000000
O        6.10200000      14.29300000      22.03800000
O        7.25100000      14.29600000      21.70500000
O       13.02300000      16.65800000      15.83700000
O       12.02000000      16.17000000      15.40500000
O       19.47200000       3.72100000      10.66900000
O       20.16400000       2.82300000      11.04800000
O       21.75300000      13.27100000      20.97300000
O       22.12300000      12.87600000      22.04000000
O        6.40700000      16.57600000       8.81900000
O        6.13300000      16.74400000       9.97100000
O        5.80000000      22.07800000       0.47500000
O        5.48400000      22.12400000       1.62800000
O       14.76300000      12.16100000      12.81700000
O       13.70500000      12.39600000      13.32200000
O        7.81500000      16.99700000       1.37800000
O        7.72400000      17.06600000       2.56800000
O       15.66300000       0.27300000       8.85200000
O       14.50000000       0.00200000       8.90100000
O       10.67600000      11.82400000      16.21900000
O       11.26200000      10.98200000      15.60400000
O       16.51300000      13.19400000      14.58800000
O       15.96900000      13.56700000      15.58600000
O       17.17800000       2.46400000      21.47400000
O       18.01600000       1.68900000      21.83300000
O        8.84800000       7.85600000       8.06700000
O        8.53200000       8.45900000       7.08300000
O       10.60700000      16.44200000      17.44400000
O        9.95000000      17.17900000      16.76800000
O       14.90200000       6.20800000      14.29500000
O       13.99400000       6.92100000      14.60800000
O        8.37200000      14.60700000      15.19800000
O        8.45400000      15.57700000      15.89300000
O        9.27100000       8.01500000      19.20000000
O       10.00500000       7.40100000      18.48300000
O       15.85900000      13.06400000       6.78700000
O       15.49500000      12.36800000       7.68800000
O       21.91100000      17.51400000      21.10700000
O       22.32100000      17.27800000      22.20500000
O       11.78800000       6.17500000      19.18000000
O       12.93500000       6.30500000      19.49500000
O        6.28600000      13.45900000       8.07100000
O        6.89600000      14.46800000       8.26500000
O        4.07100000      13.55900000      16.88600000
O        4.14900000      12.78200000      15.98000000
O        5.00300000       7.08500000       8.59300000
O        4.64100000       6.35400000       9.46800000
O       21.92600000       8.99300000       0.23800000
O       21.32000000       9.72100000       0.96700000
O       13.52200000      16.85200000      13.67400000
O       14.64800000      17.08700000      14.00300000
O       11.09600000       8.84000000      16.23400000
O       11.68100000       8.31700000      15.33200000
O        8.09500000       2.40500000       9.51300000
O        7.13900000       2.15800000       8.83900000
O       18.41800000      16.36600000       8.10700000
O       18.11400000      17.08600000       9.01200000
O        3.05500000      12.24400000       2.20900000
O        3.97300000      11.77300000       2.81400000
O       11.46000000       5.75500000       5.35600000
O       11.78600000       4.94700000       6.17500000
O       13.39300000      17.31400000      10.37900000
O       12.53300000      16.56100000      10.73000000
O       15.16000000      15.53400000       8.67900000
O       14.06000000      15.56600000       8.21100000
O        7.23200000      12.64000000       5.31900000
O        6.11600000      12.90000000       4.97700000
O        8.87700000       0.75200000       8.20600000
O        8.97600000       0.73300000       7.01400000
O        8.99600000      15.33900000      12.80900000
O        9.87100000      15.63000000      13.57000000
O       10.91300000      14.56900000       8.63000000
O       12.08400000      14.59500000       8.86900000
O       13.03300000      21.89600000       1.20200000
O       13.12800000      21.94600000       2.39300000
O        7.72900000       0.13100000      14.31600000
O        8.10300000       1.23900000      14.06400000
O       12.59400000       7.35600000      16.99800000
O       13.32300000       6.48800000      17.38000000
