198
Lattice="22.439999882102857 0.0 0.0 0.0 22.439999882102857 0.0 0.0 0.0 22.439999882102857" Properties=species:S:1:pos:R:3 connectivity="_JSON [[0, 1, null], [2, 3, null], [4, 5, null], [6, 7, null], [8, 9, null], [10, 11, null], [12, 13, null], [14, 15, null], [16, 17, null], [18, 19, null], [20, 21, null], [22, 23, null], [24, 25, null], [26, 27, null], [28, 29, null], [30, 31, null], [32, 33, null], [34, 35, null], [36, 37, null], [38, 39, null], [40, 41, null], [42, 43, null], [44, 45, null], [46, 47, null], [48, 49, null], [50, 51, null], [52, 53, null], [54, 55, null], [56, 57, null], [58, 59, null], [60, 61, null], [62, 63, null], [64, 65, null], [66, 67, null], [68, 69, null], [70, 71, null], [72, 73, null], [74, 75, null], [76, 77, null], [78, 79, null], [80, 81, null], [82, 83, null], [84, 85, null], [86, 87, null], [88, 89, null], [90, 91, null], [92, 93, null], [94, 95, null], [96, 97, null], [98, 99, null], [100, 101, null], [102, 103, null], [104, 105, null], [106, 107, null], [108, 109, null], [110, 111, null], [112, 113, null], [114, 115, null], [116, 117, null], [118, 119, null], [120, 121, null], [122, 123, null], [124, 125, null], [126, 127, null], [128, 129, null], [130, 131, null], [132, 133, null], [134, 135, null], [136, 137, null], [138, 139, null], [140, 141, null], [142, 143, null], [144, 145, null], [146, 147, null], [148, 149, null], [150, 151, null], [152, 153, null], [154, 155, null], [156, 157, null], [158, 159, null], [160, 161, null], [162, 163, null], [164, 165, null], [166, 167, null], [168, 169, null], [170, 171, null], [172, 173, null], [174, 175, null], [176, 177, null], [178, 179, null], [180, 181, null], [182, 183, null], [184, 185, null], [186, 187, null], [188, 189, null], [190, 191, null], [192, 193, null], [194, 195, null], [196, 197, null]]" pbc="T T T"
H        7.68900000       4.23800000      14.70100000
H        7.27700000       4.38400000      14.09800000
H       16.87500000       7.77200000      22.43300000
H       16.80300000       7.47200000      21.75500000
H        6.39200000      14.22000000      10.92300000
H        6.31600000      13.84600000      11.56300000
H       17.96100000      22.28000000      15.80400000
H       17.99900000      22.30100000      15.06100000
H        6.64500000       7.84500000      14.51400000
H        7.04200000       7.55800000      13.95200000
H        4.04600000       6.20800000      16.06900000
H        4.47500000       5.67200000      16.35900000
H        4.55900000       3.53900000      13.90700000
H        4.17600000       3.42100000      14.53500000
H        9.52400000      11.92400000      19.21900000
H        9.24900000      12.56600000      19.47800000
H        9.56200000      15.26100000      15.00200000
H        9.17400000      14.86600000      14.50400000
H        7.83400000       9.20900000      16.46000000
H        7.74800000       9.86200000      16.11200000
H        8.62300000       0.37700000       0.99600000
H        8.74600000       0.36500000       0.26100000
H       19.55000000       3.80600000       2.21000000
H       19.50800000       3.32100000       1.64700000
H       10.71500000       0.37600000      19.03900000
H       11.35600000       0.44400000      19.41200000
H       21.21800000       8.24400000      12.39300000
H       21.22300000       8.98700000      12.34200000
H       14.50100000      22.38800000      21.37300000
H       14.49600000      22.35100000      20.62900000
H       22.44000000       7.89100000       0.50000000
H       21.77000000       7.64500000       0.28400000
H       10.96500000      22.37200000      14.79100000
H       10.47100000      22.43900000      14.23700000
H       15.37400000       6.03200000      13.90900000
H       15.34900000       6.06800000      14.65300000
H        8.13600000      12.26600000      16.60100000
H        8.61500000      12.00300000      16.09400000
H       16.86400000      16.61400000      12.46600000
H       17.16300000      16.83500000      11.82100000
H       11.14900000      14.21600000       8.04800000
H       10.81000000      14.69200000       8.51000000
H        5.72100000       8.25400000       8.77800000
H        5.10900000       8.52100000       8.44800000
H       22.21100000       0.03500000       2.82800000
H       22.35700000       0.01600000       3.55800000
H        0.41200000      22.43300000       5.68500000
H        0.01900000      21.92100000       6.05600000
H       11.97800000      10.08000000       6.83200000
H       11.34900000       9.76400000       6.58700000
H        0.62900000      20.96300000      12.37100000
H        0.80700000      21.10000000      13.08100000
H       15.42800000      10.18100000      15.28700000
H       15.94100000      10.39300000      14.78900000
H       11.23200000       2.18500000      15.86600000
H       10.58700000       2.28100000      15.50500000
H        1.16700000       6.42000000      21.54000000
H        1.30400000       6.24300000      22.25100000
H        0.82800000      13.14800000      18.48500000
H        1.22500000      12.55000000      18.28500000
H        3.00700000      10.42900000      12.87600000
H        2.97300000      10.55400000      13.61000000
H       11.39300000      16.82700000      12.94200000
H       10.88000000      16.56600000      12.46900000
H        8.29700000      10.32100000      10.67900000
H        8.03500000      10.03200000      10.04500000
O       10.20700000       3.12000000      13.12400000
O        9.57000000       3.61700000      12.24200000
O       21.88300000      12.80900000       8.91600000
O       22.08000000      13.12800000       7.78000000
O        2.31400000      18.15300000       9.31300000
O        2.56800000      18.07100000      10.47900000
O        1.74600000       3.64000000      11.10800000
O        1.79700000       4.48100000      10.26000000
O       19.16900000       6.98800000      12.10800000
O       18.61200000       6.68400000      13.12200000
O       18.02000000       7.98400000       9.82500000
O       18.95500000       8.70800000      10.00300000
O       14.97100000      13.26800000      11.19100000
O       15.23400000      13.69700000      10.10500000
O        1.67600000       5.55600000      15.53300000
O        0.86200000       5.62500000      14.65900000
O        4.80500000       9.99900000      15.62900000
O        4.74300000       9.78700000      16.80500000
O        4.43600000       5.73700000      12.00700000
O        3.52100000       6.48400000      12.19300000
O       18.32600000       5.27200000      15.05100000
O       18.03700000       4.68800000      16.05300000
O       13.37500000       7.21500000      10.26600000
O       14.46200000       7.27700000      10.76200000
O        2.79200000      16.07300000      11.74300000
O        1.97800000      15.92500000      10.87900000
O        0.23900000      22.34400000      15.45600000
O        0.37600000      22.40600000      16.64300000
O       10.25000000      10.17200000      16.39900000
O        9.89100000      10.61700000      17.44900000
O       18.25000000       7.03500000      16.63200000
O       18.27900000       8.07800000      17.21700000
O        2.95100000       6.26900000       8.51700000
O        2.98200000       7.38200000       8.08100000
O       14.73900000      10.74100000      18.34000000
O       14.20800000      11.54800000      19.04400000
O        0.86400000      21.81800000       8.07300000
O        0.06600000      22.28100000       8.83400000
O       14.84500000       6.37900000      17.37600000
O       15.31900000       7.14800000      16.59300000
O       15.24300000      19.55300000       1.00100000
O       14.58500000      19.57700000       0.00300000
O       12.57100000      11.89900000      10.84600000
O       12.70000000      10.84500000      10.29600000
O       10.37700000      21.50600000      21.35200000
O       11.44400000      22.02500000      21.50100000
O       12.58700000       7.94500000      13.13300000
O       12.90400000       7.15000000      13.96800000
O       17.43900000      17.06000000       2.50500000
O       17.83800000      15.93300000       2.54000000
O        7.83300000       4.04200000      21.43500000
O        8.26600000       4.75200000      22.29400000
O       21.48700000      14.14300000       0.42800000
O       22.41500000      14.74300000       0.88500000
O       21.22400000      19.73700000       9.03300000
O       20.82600000      19.90600000      10.14800000
O        6.21600000      13.69300000      22.24500000
O        5.23100000      14.37300000      22.26300000
O        7.38100000      15.04000000      16.68900000
O        8.23700000      15.87200000      16.76100000
O       20.30400000       3.17600000      12.17300000
O       20.42700000       2.96900000      11.00200000
O       22.28100000      11.96600000      20.80600000
O       22.12300000      13.13200000      21.02000000
O        9.31100000      15.43600000      10.10100000
O        8.26000000      15.91500000       9.79300000
O        6.01200000      21.70700000       0.69600000
O        5.41400000      22.43000000       1.43700000
O       13.23400000      11.35300000      13.33200000
O       14.35700000      11.42600000      12.92700000
O        8.35100000      17.04600000       1.83400000
O        7.18800000      17.01700000       2.11200000
O       15.26200000       0.00500000       8.30700000
O       14.90100000       0.05400000       9.44600000
O       11.44500000       7.49100000      15.84600000
O       10.33800000       7.86900000      16.09500000
O       15.92800000      12.99500000      14.08200000
O       15.85500000      13.05000000      15.27400000
O       12.86500000       3.67900000      16.76900000
O       13.48900000       4.11100000      17.69300000
O       13.34200000       8.46600000       8.00800000
O       12.44400000       8.57600000       8.79000000
O        9.90700000      17.25700000      16.40400000
O        9.44200000      17.60900000      15.36000000
O       16.13200000       3.82300000      16.81500000
O       16.08500000       3.86100000      15.62100000
O        5.93200000      13.56000000       7.30500000
O        5.44000000      13.89400000       8.34200000
O       15.73300000      15.33800000      14.62300000
O       15.54800000      16.50300000      14.43000000
O       10.61400000      12.34100000      11.09400000
O        9.52600000      12.61100000      11.51100000
O       22.35200000      16.56100000      21.33800000
O       21.92300000      16.74700000      22.43900000
O       10.41900000       8.65200000      19.25700000
O       11.47400000       8.26400000      19.66600000
O        6.75800000      20.57700000       5.84800000
O        7.07700000      20.54300000       7.00100000
O        4.02200000      13.73600000      12.68800000
O        4.56400000      13.61500000      13.74800000
O        8.62600000      12.12800000       7.02500000
O        8.81800000      12.49400000       8.14700000
O       21.05000000       9.82700000       1.44800000
O       22.11400000      10.23000000       1.08000000
O        6.01300000      17.00500000      14.09800000
O        5.94400000      17.87600000      14.91500000
O       19.94100000      12.97100000      15.27700000
O       19.76700000      12.00900000      14.58700000
O       10.75400000       0.62400000      10.84400000
O       10.61200000       0.46000000      12.02000000
O        9.41800000      17.39400000       7.85100000
O       10.41100000      17.45400000       8.51500000
O       16.60700000      10.04900000       8.72600000
O       16.27800000      10.69800000       7.77700000
O       11.68600000       5.47400000       6.38900000
O       11.66200000       5.46900000       5.19300000
O       12.27100000      14.60700000      10.60500000
O       11.59900000      15.58800000      10.73200000
O        8.27300000      10.87100000      13.39300000
O        7.54300000       9.99200000      13.04100000
O       18.00700000       7.98100000       6.73300000
O       18.35000000       6.83600000       6.70900000
O       17.12900000       3.57200000      10.97800000
O       17.18600000       3.99000000       9.85800000
O       12.10300000      13.86500000      12.73500000
O       11.47300000      13.33400000      13.60200000
O       15.56000000      16.70200000      10.10600000
O       14.40500000      16.94600000       9.91300000
O       12.14000000      22.23700000       1.38900000
O       13.23200000      21.92000000       1.76100000
O        7.12200000       2.00500000      13.19400000
O        6.06000000       2.20300000      12.68100000
