198
Lattice="22.439999882102853 0.0 0.0 0.0 22.439999882102853 0.0 0.0 0.0 22.439999882102853" Properties=species:S:1:pos:R:3 connectivity="_JSON [[0, 1, null], [2, 3, null], [4, 5, null], [6, 7, null], [8, 9, null], [10, 11, null], [12, 13, null], [14, 15, null], [16, 17, null], [18, 19, null], [20, 21, null], [22, 23, null], [24, 25, null], [26, 27, null], [28, 29, null], [30, 31, null], [32, 33, null], [34, 35, null], [36, 37, null], [38, 39, null], [40, 41, null], [42, 43, null], [44, 45, null], [46, 47, null], [48, 49, null], [50, 51, null], [52, 53, null], [54, 55, null], [56, 57, null], [58, 59, null], [60, 61, null], [62, 63, null], [64, 65, null], [66, 67, null], [68, 69, null], [70, 71, null], [72, 73, null], [74, 75, null], [76, 77, null], [78, 79, null], [80, 81, null], [82, 83, null], [84, 85, null], [86, 87, null], [88, 89, null], [90, 91, null], [92, 93, null], [94, 95, null], [96, 97, null], [98, 99, null], [100, 101, null], [102, 103, null], [104, 105, null], [106, 107, null], [108, 109, null], [110, 111, null], [112, 113, null], [114, 115, null], [116, 117, null], [118, 119, null], [120, 121, null], [122, 123, null], [124, 125, null], [126, 127, null], [128, 129, null], [130, 131, null], [132, 133, null], [134, 135, null], [136, 137, null], [138, 139, null], [140, 141, null], [142, 143, null], [144, 145, null], [146, 147, null], [148, 149, null], [150, 151, null], [152, 153, null], [154, 155, null], [156, 157, null], [158, 159, null], [160, 161, null], [162, 163, null], [164, 165, null], [166, 167, null], [168, 169, null], [170, 171, null], [172, 173, null], [174, 175, null], [176, 177, null], [178, 179, null], [180, 181, null], [182, 183, null], [184, 185, null], [186, 187, null], [188, 189, null], [190, 191, null], [192, 193, null], [194, 195, null], [196, 197, null]]" pbc="T T T"
H        8.48800000       3.93100000      14.77600000
H        7.99600000       4.22200000      14.29800000
H       16.87500000       7.77200000      22.44000000
H       16.80400000       7.47200000      21.76200000
H        6.41300000      14.72400000      10.93600000
H        6.33800000      14.34800000      11.57400000
H       17.66600000      22.17900000      15.48500000
H       17.70300000      22.19900000      14.74100000
H        5.95700000       9.24600000      12.69900000
H        6.32600000       8.73500000      12.30200000
H        3.77800000       6.19900000      15.43700000
H        4.20300000       5.66000000      15.72700000
H        3.99800000       3.69800000      13.90800000
H        3.64200000       3.58700000      14.55200000
H        9.02100000      11.26200000      18.56600000
H        8.75200000      11.89700000      18.84800000
H        7.69000000      15.27000000      15.68200000
H        7.18100000      14.88300000      15.29900000
H        4.07500000       9.17400000      15.86500000
H        3.90800000       9.82200000      15.53800000
H        8.53000000       0.24700000       0.94800000
H        8.64600000       0.23500000       0.21300000
H       19.62400000       4.22000000       2.47500000
H       19.65000000       3.70900000       1.93300000
H       11.52300000       5.54300000      12.61800000
H       12.16500000       5.68700000      12.96700000
H       21.08700000       8.54000000      12.34900000
H       21.05400000       9.28300000      12.30300000
H       14.46700000      22.44000000      21.28000000
H       14.46200000      22.40100000      20.53600000
H       22.44000000       7.89300000       0.54700000
H       21.78700000       7.62300000       0.30900000
H       10.96500000      22.37300000      14.79100000
H       10.47100000      22.44000000      14.23700000
H       15.77200000       1.14600000      14.18100000
H       15.71400000       1.22900000      14.91900000
H        7.73800000      12.51200000      16.47600000
H        8.20200000      12.24600000      15.95700000
H       16.67800000      16.81900000      12.75200000
H       16.93400000      17.01800000      12.08100000
H       10.74100000      14.70500000       8.81000000
H       10.42800000      15.15900000       9.31200000
H        4.56400000       9.32800000      10.38300000
H        4.29600000       9.88100000       9.96200000
H       22.20400000       0.03300000       2.79500000
H       22.34800000       0.01400000       3.52600000
H        0.39700000      22.44000000       5.71100000
H        0.00000000      21.91800000       6.06500000
H       12.33400000      15.86500000      15.59000000
H       11.79100000      15.54800000      15.19100000
H       10.95100000      18.13900000      12.28100000
H       11.14700000      18.28200000      12.98500000
H       15.49000000       5.09900000      14.11100000
H       15.94900000       5.32500000      13.57000000
H       10.99400000       7.71700000      12.65000000
H       10.36500000       7.81000000      12.26100000
H        1.14100000       6.43500000      21.55600000
H        1.28800000       6.24700000      22.26200000
H        0.00800000      13.16900000      18.93800000
H        0.49100000      12.60400000      18.88700000
H        6.82200000      10.06200000      10.43300000
H        6.61400000      10.49300000      11.00500000
H        9.86300000      15.11700000      13.87700000
H        9.26900000      14.85800000      13.50900000
H       11.13400000      12.38800000       7.18000000
H       10.47100000      12.09500000       7.00800000
H       17.92300000      12.13500000      16.13500000
H       17.59800000      12.30800000      15.48700000
H       21.92000000      12.86900000       8.70200000
H       22.04300000      13.06800000       7.99400000
H        1.74100000      19.52300000      12.24800000
H        1.69500000      19.53900000      12.99100000
H        1.13000000       9.04800000      14.79400000
H        1.18300000       9.53800000      14.23600000
H       13.13800000       2.18100000      14.20200000
H       13.05200000       2.57000000      14.83200000
H       22.07000000       5.08300000      14.41900000
H       22.22300000       5.52300000      13.83800000
H       12.12500000      15.08400000      12.12000000
H       11.89400000      15.51500000      11.55800000
H        0.34100000       6.15200000      17.14400000
H        0.00200000       6.22600000      16.48500000
H        6.45900000      10.54600000       6.57400000
H        6.25700000       9.90200000       6.26000000
H        2.42200000       6.45100000      12.80700000
H        2.40600000       6.92600000      12.23400000
H       19.61000000      10.00000000      14.52000000
H       19.40200000      10.02200000      13.80500000
H        9.66900000      11.80700000       9.03100000
H       10.30500000      12.14900000       9.21200000
H        4.93500000       4.40900000      11.89800000
H        4.97200000       4.42000000      11.15400000
H        0.15700000      22.33600000      15.68000000
H        0.24200000      22.37500000      16.41900000
H       14.64600000       7.96900000      12.37000000
H       14.21300000       8.46600000      12.71700000
H       16.89700000       9.70500000       9.42500000
H       16.83900000      10.29100000       9.88100000
H        1.45900000       4.03700000      12.23600000
H        1.44300000       4.47200000      12.84100000
H       15.95500000      10.14400000      14.09500000
H       16.33700000       9.59800000      14.42800000
H        0.48000000      22.05800000       8.20900000
H        0.00000000      22.32800000       8.71100000
H        8.04900000       6.76400000      17.29800000
H        8.50400000       7.20700000      16.90900000
H       15.10500000      19.55800000       0.64000000
H       14.72300000      19.57200000       0.00000000
H       13.10000000       7.27600000      10.01800000
H       12.44900000       7.29500000      10.37900000
H       10.55200000      22.09500000      21.49600000
H       11.25100000      22.33800000      21.58700000
H       18.37400000       6.09400000      12.54700000
H       18.65300000       5.65300000      13.07900000
H       20.87700000      18.04000000       3.21500000
H       21.44100000      18.45900000       3.46400000
H        7.91400000       4.17600000      21.80800000
H        8.18400000       4.61800000      22.34400000
H       21.76700000      14.38600000       0.42200000
H       22.40300000      14.67000000       0.68400000
H       21.23100000      20.97300000      12.25100000
H       21.11300000      21.02300000      12.98500000
H       10.46000000      12.18700000      22.36900000
H       10.21800000      11.48600000      22.44000000
H        5.00600000      11.31100000      14.12800000
H        5.38000000      11.68600000      13.60400000
H       21.20300000       1.37800000      11.36200000
H       20.90500000       1.92900000      10.95800000
H       22.44000000      12.04200000      21.70500000
H       22.31600000      12.74900000      21.50600000
H       16.05400000      20.82200000      12.01800000
H       15.57400000      20.91600000      12.58000000
O        6.01200000      21.71400000       0.69700000
O        5.41400000      22.44000000       1.43500000
O       12.72100000      12.81000000      12.18200000
O       13.64900000      12.10200000      11.92300000
O        8.35100000      17.04600000       1.83400000
O        7.18800000      17.01700000       2.11200000
O       15.26200000       0.00000000       8.30700000
O       14.90100000       0.05000000       9.44600000
O       11.43200000       7.69200000      16.56900000
O       10.50600000       8.44600000      16.51200000
O       15.40700000      13.69000000      14.01500000
O       15.03500000      13.87800000      15.13600000
O       12.74100000       3.89000000      17.41700000
O       13.42300000       4.23200000      18.33800000
O        9.63500000       9.82200000      10.32400000
O        9.62000000       8.65900000      10.04300000
O        9.49800000      16.56500000      16.37700000
O        8.72900000      17.22900000      15.74600000
O       15.99000000       3.63700000      17.26700000
O       15.97100000       3.65400000      16.07200000
O       12.72000000      10.24400000      12.77000000
O       11.77500000      10.12700000      13.49300000
O       16.08500000      16.11800000      15.19100000
O       15.54700000      17.18500000      15.24200000
O       10.92800000      13.28300000      10.99300000
O        9.79600000      13.39200000      11.36300000
O       22.34700000      16.65700000      21.31400000
O       21.87600000      16.87300000      22.39200000
O       10.19900000       9.22300000      18.80200000
O       11.03100000       8.63100000      19.42500000
O        6.49700000      20.83600000       5.94000000
O        6.84300000      20.78800000       7.08300000
O        3.86600000      13.65900000      13.23200000
O        4.37700000      13.51700000      14.30400000
O        8.00500000      12.47300000       6.38000000
O        8.17300000      12.87600000       7.49300000
O       21.20300000       9.86100000       1.02300000
O       22.12400000      10.11100000       0.30300000
O        1.48200000      17.60700000      14.54800000
O        1.28100000      18.52000000      15.29400000
O       14.18200000       8.90000000      16.53300000
O       14.40000000       7.84100000      16.02200000
O        8.22100000       6.93700000      10.37000000
O        7.35800000       6.38700000      10.98900000
O        9.73600000      17.55700000       7.61300000
O       10.90300000      17.50900000       7.87000000
O       13.58000000      10.22200000       8.35900000
O       13.77400000      10.83400000       7.35000000
O       11.68600000       5.47400000       6.38900000
O       11.66200000       5.46900000       5.19300000
O       19.73600000       4.30700000       9.19200000
O       19.45800000       5.46500000       9.08000000
O        8.66200000      11.38400000      12.95400000
O        8.06000000      10.39400000      13.25000000
O        3.67200000       8.69800000      13.42100000
O        4.32800000       7.70500000      13.54000000
O       16.98400000       3.88100000      10.60600000
O       17.03300000       4.23500000       9.46400000
O       11.62100000       9.74300000       9.37700000
O       11.83300000       9.82600000      10.55100000
O       14.94800000      15.41000000      10.36400000
O       13.82900000      15.82600000      10.29000000
O       12.26500000      22.07700000       1.46400000
O       13.38100000      21.81600000       1.80700000
O        7.47600000       1.73900000      12.44500000
O        6.33400000       1.98200000      12.18600000
