200
Lattice="22.439999882102853 0.0 0.0 0.0 22.439999882102853 0.0 0.0 0.0 22.439999882102853" Properties=species:S:1:pos:R:3 connectivity="_JSON [[0, 1, null], [2, 3, null], [4, 5, null], [6, 7, null], [8, 9, null], [10, 11, null], [12, 13, null], [14, 15, null], [16, 17, null], [18, 19, null], [20, 21, null], [22, 23, null], [24, 25, null], [26, 27, null], [28, 29, null], [30, 31, null], [32, 33, null], [34, 35, null], [36, 37, null], [38, 39, null], [40, 41, null], [42, 43, null], [44, 45, null], [46, 47, null], [48, 49, null], [50, 51, null], [52, 53, null], [54, 55, null], [56, 57, null], [58, 59, null], [60, 61, null], [62, 63, null], [64, 65, null], [66, 67, null], [68, 69, null], [70, 71, null], [72, 73, null], [74, 75, null], [76, 77, null], [78, 79, null], [80, 81, null], [82, 83, null], [84, 85, null], [86, 87, null], [88, 89, null], [90, 91, null], [92, 93, null], [94, 95, null], [96, 97, null], [98, 99, null], [100, 101, null], [102, 103, null], [104, 105, null], [106, 107, null], [108, 109, null], [110, 111, null], [112, 113, null], [114, 115, null], [116, 117, null], [118, 119, null], [120, 121, null], [122, 123, null], [124, 125, null], [126, 127, null], [128, 129, null], [130, 131, null], [132, 133, null], [134, 135, null], [136, 137, null], [138, 139, null], [140, 141, null], [142, 143, null], [144, 145, null], [146, 147, null], [148, 149, null], [150, 151, null], [152, 153, null], [154, 155, null], [156, 157, null], [158, 159, null], [160, 161, null], [162, 163, null], [164, 165, null], [166, 167, null], [168, 169, null], [170, 171, null], [172, 173, null], [174, 175, null], [176, 177, null], [178, 179, null], [180, 181, null], [182, 183, null], [184, 185, null], [186, 187, null], [188, 189, null], [190, 191, null], [192, 193, null], [194, 195, null], [196, 197, null], [198, 199, null]]" pbc="T T T"
H        0.79700000       5.72300000      13.58700000
H        0.92300000       5.81200000      12.85800000
H       16.65700000       7.83200000      22.38900000
H       17.02200000       7.41200000      21.89400000
H        5.99600000      15.07400000      11.02100000
H        6.31100000      14.58600000      11.48700000
H       17.81000000      22.44000000      13.62000000
H       17.43900000      22.41200000      14.26500000
H        6.98400000      11.99400000      12.96400000
H        6.71200000      12.54600000      13.38300000
H        9.45200000       5.88400000      14.47500000
H        9.03000000       5.48000000      14.01300000
H        3.65900000      10.98300000      12.08100000
H        3.45400000      11.69100000      11.97200000
H        8.42700000       9.42500000      13.18200000
H        8.58400000       9.39200000      12.45400000
H        8.37700000      10.92200000      15.82800000
H        7.97800000      11.47800000      15.53200000
H       13.02500000      11.40400000      15.80200000
H       13.42200000      11.44400000      16.43100000
H        8.82100000       0.06100000       0.43300000
H        8.87900000       0.80100000       0.49800000
H       20.79100000       3.97400000       3.28000000
H       20.70700000       3.28600000       3.00500000
H       10.49400000       4.43700000      12.22300000
H        9.85600000       4.05500000      12.17400000
H       14.44900000      18.11300000      12.15100000
H       13.94000000      18.19100000      11.61200000
H       14.08000000      22.39600000      20.92100000
H       14.04800000      22.43900000      21.66400000
H       21.72700000       7.86600000       0.90700000
H       22.03600000       7.77900000       0.23500000
H       10.59400000      22.19100000      14.84200000
H       10.84300000      22.43900000      14.18500000
H       16.70300000       5.99000000      13.51900000
H       16.37300000       6.51400000      13.93500000
H        5.03500000      11.73700000      14.89900000
H        4.78300000      12.28400000      14.46100000
H       16.19000000      16.76100000      12.52000000
H       16.32100000      16.73900000      13.25300000
H       12.99900000      12.82300000       8.99400000
H       12.61800000      12.43800000       9.50500000
H       12.39200000       8.31900000       6.07700000
H       11.81700000       7.84600000       6.05600000
H       22.28500000       0.00200000       2.66400000
H       22.34400000       0.04700000       3.40600000
H        0.03400000      22.17800000       6.19900000
H        0.50200000      22.42400000       5.67400000
H       10.39200000      18.73200000      16.44600000
H        9.76400000      18.91300000      16.08900000
H       11.16000000      16.53600000      11.53500000
H       11.36500000      16.28000000      12.20400000
H       21.10400000      12.77900000      12.66200000
H       21.16200000      12.12800000      12.30500000
H       16.74700000       6.88700000      11.28800000
H       16.32000000       7.28600000      11.75100000
H        1.84700000       6.08400000      22.18200000
H        1.30300000       5.81600000      21.74900000
H        0.21400000      17.52700000      19.07400000
H        0.00700000      17.39100000      18.37100000
H        6.35700000       8.71100000      12.30700000
H        5.99700000       8.88900000      11.68000000
H        1.05800000      15.14200000      12.71500000
H        1.22400000      15.41600000      12.04300000
H       22.02300000      12.07000000      14.95200000
H       22.04400000      12.06400000      15.69700000
H       19.34100000      12.73700000      15.21100000
H       19.42600000      13.19400000      14.62900000
H       22.02200000      12.84500000       7.99900000
H       21.94100000      13.09200000       8.69700000
H        2.69900000      13.72700000      11.61800000
H        2.85100000      14.20100000      11.06300000
H        4.46600000       7.76900000      13.78800000
H        4.19800000       8.15500000      13.21000000
H       13.68500000       1.05900000      14.50400000
H       13.19500000       1.16300000      13.95400000
H       19.06600000      11.33200000      12.44100000
H       18.93700000      10.75000000      11.99300000
H       13.20000000      15.26700000      11.53500000
H       13.34500000      15.75600000      10.99200000
H        0.61100000       6.37600000      16.76700000
H        0.00100000       6.67100000      16.45700000
H       10.75800000       7.97300000      11.55100000
H       11.19200000       8.30700000      11.04600000
H        3.16000000       0.72500000      12.30200000
H        3.16500000       0.72700000      11.55700000
H       19.70200000       9.20200000      14.33000000
H       19.93200000       9.32300000      15.02800000
H        7.32100000      10.54500000       9.33800000
H        6.96600000      11.14000000       9.61100000
H        6.18700000       9.11000000      14.51200000
H        6.05800000       9.74500000      14.88000000
H        0.20000000      22.13400000      15.70500000
H        0.19900000      22.42100000      16.39300000
H       15.57600000      10.29200000      10.65300000
H       16.09800000       9.87800000      10.32000000
H       13.58200000       8.74200000      11.24100000
H       13.18300000       9.14800000      11.72200000
H        7.45000000       5.58100000      11.41800000
H        7.90300000       5.99600000      10.99700000
H       15.94200000       0.00100000      15.87800000
H       15.41900000       0.00000000      15.34800000
H        0.72900000      22.10500000       8.34900000
H        0.10900000      22.19800000       8.75100000
H       12.26500000       5.59100000      12.94000000
H       12.94600000       5.73400000      13.20700000
H       14.79000000      19.77300000       0.01300000
H       15.03700000      19.35700000       0.57900000
H       11.56900000       8.68900000      14.51800000
H       11.02800000       8.65800000      14.00600000
H       10.68500000      21.95400000      21.37000000
H       10.90000000      22.41500000      21.91400000
H       12.02000000       5.64500000      10.64700000
H       12.58700000       6.10900000      10.78200000
H       22.36200000      18.19800000       4.73100000
H       21.80200000      18.44600000       5.15500000
H        8.06500000       4.76000000      21.99300000
H        8.03300000       4.03400000      22.15900000
H       22.20100000      14.39500000       0.86000000
H       22.42700000      14.60600000       0.18200000
H       16.57500000      13.12400000      10.49000000
H       16.10700000      13.55500000      10.87700000
H       10.19300000      11.73800000      22.42500000
H       10.23200000      12.47200000      22.30500000
H        9.58100000      13.00000000      12.92300000
H        9.03700000      13.13800000      13.41300000
H       21.07400000       1.27900000      11.22300000
H       20.81800000       1.58300000      10.59300000
H       22.14500000      12.49200000      21.41700000
H       22.43300000      12.26900000      22.06700000
H        9.88500000      20.82800000      10.62600000
H        9.21800000      20.84300000      10.95800000
H        5.82600000      22.17700000       0.71200000
H        5.60000000      22.20900000       1.42100000
H        9.76300000       8.07900000      16.48100000
H        9.23000000       8.38300000      16.05900000
H        7.79800000      17.01000000       1.60200000
H        7.74100000      17.05300000       2.34400000
H       15.44000000       0.20000000       8.86200000
H       14.72300000       0.00000000       8.89100000
H       17.55600000       7.82100000      15.50100000
H       17.73500000       7.26100000      15.95800000
H       16.60600000      12.58700000      14.93700000
H       16.33000000      12.83100000      15.58500000
H       12.09000000       2.29700000      16.60600000
H       12.68400000       2.11200000      16.19600000
H        4.44400000      10.35300000       9.91100000
H        4.15500000      10.94100000       9.55700000
H        6.73400000      18.10500000      14.15600000
H        6.35600000      18.48800000      14.67100000
H        9.61000000      14.20600000      10.34500000
H        9.08800000      14.56400000      10.73700000
H       18.41300000      17.29500000      13.82800000
H       18.09000000      17.47100000      14.47600000
H       10.41600000      11.58100000      14.53700000
H       10.88200000      11.00200000      14.49000000
H       14.92200000      13.90400000      13.35300000
H       15.59300000      14.10000000      13.61000000
H       22.18700000      17.00600000      21.75100000
H       22.44000000      16.83500000      22.43100000
O       11.50200000       5.87100000      19.27400000
O       12.59500000       6.04800000      19.72800000
O        6.59700000      13.20500000       8.91700000
O        7.12500000      14.26300000       9.09800000
O        5.80400000      14.51700000      17.32800000
O        6.63500000      13.78700000      16.87300000
O        4.64100000       6.76300000       8.39200000
O        4.30000000       6.10300000       9.33000000
O       22.20200000      10.15200000       0.18100000
O       21.25700000      10.24700000       0.90800000
O       12.02000000      17.70500000      13.81600000
O       13.13900000      18.10700000      13.94400000
O        9.73400000       6.51200000      18.03000000
O       10.37700000       6.06600000      17.12600000
O        2.16300000       5.33100000       9.34700000
O        1.70100000       5.22000000       8.24900000
O       17.98000000      16.07300000       7.99600000
O       17.67700000      16.75800000       8.92900000
O       10.88800000      10.70100000       6.55000000
O        9.96900000      10.28800000       5.90600000
O       11.49500000       5.72400000       5.32400000
O       11.80800000       4.93100000       6.16300000
O       19.99500000       2.56300000       8.76900000
O       20.06500000       3.34200000       7.86500000
O        8.37200000      11.29200000      11.29900000
O        8.44900000      12.45800000      11.04200000
O        3.57400000      10.75700000      17.29400000
O        3.82600000      11.77100000      17.87600000
O        8.14300000       0.58600000       8.26500000
O        8.44600000       0.50800000       7.11000000
O       15.75900000      10.22100000      13.75700000
O       16.54100000       9.62900000      14.44300000
O       11.03400000      14.59300000       8.68400000
O       12.19800000      14.85800000       8.75700000
O       13.06600000      22.00600000       1.14500000
O       13.07700000      22.01200000       2.34100000
O        7.42000000       0.37600000      14.43700000
O        8.01800000       1.38800000      14.21800000
O        7.22500000       8.43900000       8.70800000
O        7.83300000       7.42200000       8.54800000
