198
Lattice="22.43999988210285 0.0 0.0 0.0 22.43999988210285 0.0 0.0 0.0 22.43999988210285" Properties=species:S:1:pos:R:3 connectivity="_JSON [[0, 1, null], [2, 3, null], [4, 5, null], [6, 7, null], [8, 9, null], [10, 11, null], [12, 13, null], [14, 15, null], [16, 17, null], [18, 19, null], [20, 21, null], [22, 23, null], [24, 25, null], [26, 27, null], [28, 29, null], [30, 31, null], [32, 33, null], [34, 35, null], [36, 37, null], [38, 39, null], [40, 41, null], [42, 43, null], [44, 45, null], [46, 47, null], [48, 49, null], [50, 51, null], [52, 53, null], [54, 55, null], [56, 57, null], [58, 59, null], [60, 61, null], [62, 63, null], [64, 65, null], [66, 67, null], [68, 69, null], [70, 71, null], [72, 73, null], [74, 75, null], [76, 77, null], [78, 79, null], [80, 81, null], [82, 83, null], [84, 85, null], [86, 87, null], [88, 89, null], [90, 91, null], [92, 93, null], [94, 95, null], [96, 97, null], [98, 99, null], [100, 101, null], [102, 103, null], [104, 105, null], [106, 107, null], [108, 109, null], [110, 111, null], [112, 113, null], [114, 115, null], [116, 117, null], [118, 119, null], [120, 121, null], [122, 123, null], [124, 125, null], [126, 127, null], [128, 129, null], [130, 131, null], [132, 133, null], [134, 135, null], [136, 137, null], [138, 139, null], [140, 141, null], [142, 143, null], [144, 145, null], [146, 147, null], [148, 149, null], [150, 151, null], [152, 153, null], [154, 155, null], [156, 157, null], [158, 159, null], [160, 161, null], [162, 163, null], [164, 165, null], [166, 167, null], [168, 169, null], [170, 171, null], [172, 173, null], [174, 175, null], [176, 177, null], [178, 179, null], [180, 181, null], [182, 183, null], [184, 185, null], [186, 187, null], [188, 189, null], [190, 191, null], [192, 193, null], [194, 195, null], [196, 197, null]]" pbc="T T T"
H        8.62100000       3.69300000      15.09600000
H        8.63500000       3.80900000      14.36100000
H       16.87500000       7.77200000      22.44200000
H       16.80400000       7.47200000      21.76300000
H        6.04000000      15.13100000      10.84600000
H        5.95700000      14.73500000      11.47200000
H       17.53500000      22.04100000      15.40700000
H       17.58200000      22.06800000      14.66400000
H        6.21200000       8.72900000      15.17300000
H        6.57200000       8.25400000      14.72500000
H        3.67900000       6.62400000      15.41200000
H        4.05400000       6.10700000      15.79500000
H        1.19600000       2.80400000      13.78000000
H        1.23300000       2.81400000      14.52400000
H        8.65800000      11.27800000      18.63700000
H        8.37700000      11.91000000      18.91500000
H        7.70800000      15.82900000      13.61700000
H        7.23100000      15.38700000      13.25300000
H        6.60000000      10.68000000      17.16300000
H        6.35900000      11.34100000      16.91900000
H        8.56600000       0.23800000       0.93000000
H        8.68900000       0.22500000       0.19500000
H       19.61600000       4.32000000       2.57800000
H       19.65600000       3.79900000       2.04700000
H       12.60400000       5.78100000      12.63400000
H       13.28800000       5.71500000      12.92200000
H       20.98800000       9.11800000      12.57200000
H       20.94800000       9.86100000      12.53700000
H       14.43400000      22.41600000      21.31900000
H       14.42800000      22.36600000      20.57500000
H       22.20300000       7.74700000       0.53400000
H       21.53500000       7.51500000       0.30100000
H       10.98900000      22.32800000      14.75900000
H       10.48800000      22.40300000      14.21300000
H       15.97900000       1.15400000      14.14800000
H       15.92800000       1.22500000      14.88800000
H        7.50100000      13.16500000      16.68400000
H        7.94900000      12.87300000      16.16500000
H       16.41900000      16.61000000      12.28700000
H       16.69900000      16.83900000      11.63600000
H       10.37400000      15.32600000       8.67600000
H       10.04600000      15.78100000       9.16600000
H        4.23500000       9.66800000      10.50800000
H        3.99400000      10.22900000      10.08200000
H       22.20700000       0.03200000       2.81100000
H       22.35000000       0.01300000       3.54200000
H        0.39500000      22.44000000       5.69700000
H       -0.00100000      21.92000000       6.05400000
H       13.84900000      14.19700000       9.56300000
H       13.15500000      14.22300000       9.29500000
H        1.26400000      21.95000000      12.30700000
H        1.36800000      22.03000000      13.04000000
H       14.97900000       4.62200000      14.20600000
H       15.36200000       4.83700000      13.60400000
H       10.28600000       1.57900000      15.87300000
H        9.69300000       1.70200000      15.43900000
H        1.12400000       6.49100000      21.57400000
H        1.27700000       6.29400000      22.27600000
H        0.53000000      13.44800000      18.61000000
H        1.03600000      12.92900000      18.43900000
H        6.18800000      11.18100000      10.53100000
H        5.95300000      11.63600000      11.07200000
H        9.71700000      12.15500000       3.49300000
H        9.01100000      11.96200000       3.35700000
H        9.87800000      11.84400000       5.96600000
H        9.24600000      11.57600000       5.67700000
H       17.86100000       2.89400000      13.74400000
H       17.59400000       3.03900000      13.06400000
H       21.92000000      12.86900000       8.70200000
H       22.04300000      13.06800000       7.99400000
H        1.53800000      19.76900000      12.56600000
H        1.49900000      19.78200000      13.30900000
H        8.86000000      15.51400000      17.40700000
H        8.90500000      16.01600000      16.85700000
H       11.49200000       2.75300000      13.26900000
H       11.39400000       3.14000000      13.89800000
H       21.72700000       5.37300000      14.62000000
H       21.86900000       5.86500000      14.07900000
H       11.67400000      15.41100000      12.09700000
H       11.45100000      15.86500000      11.55000000
H        0.35800000       6.27400000      17.17500000
H       -0.01100000       6.36300000      16.53400000
H        6.12200000      10.54600000       6.52600000
H        5.91700000       9.90500000       6.20600000
H        2.29900000       6.73900000      12.96700000
H        2.29400000       7.20500000      12.38600000
H       19.48700000      10.53900000      14.54400000
H       19.28700000      10.56200000      13.82600000
H        8.31600000      10.84500000       9.81900000
H        8.69600000      11.41000000       9.51700000
H        3.62800000       4.70500000      14.16000000
H        4.12100000       4.85100000      13.62100000
H        0.15700000      22.33600000      15.68000000
H        0.24200000      22.37500000      16.41900000
H       14.25700000       8.59800000      12.32700000
H       13.80100000       9.13800000      12.56100000
H       16.84000000      10.25100000       9.44200000
H       16.77900000      10.83900000       9.89500000
H        0.91700000       4.48000000      11.76300000
H        0.90500000       4.92600000      12.36000000
H       15.65500000      10.27700000      15.07600000
H       16.01700000       9.72300000      15.41800000
H        0.47900000      22.05800000       8.20400000
H       -0.00100000      22.32800000       8.70600000
H        7.85400000       5.43300000      11.17600000
H        8.33700000       5.90800000      10.86500000
H       15.10500000      19.55800000       0.64000000
H       14.72300000      19.57200000       0.00000000
H       14.02600000       2.53600000      14.18000000
H       13.43500000       2.58300000      14.63100000
H       10.54000000      22.10500000      21.52600000
H       11.24100000      22.34200000      21.61700000
H       14.63900000       4.76800000      16.39500000
H       14.94800000       4.28300000      16.86900000
H       20.89400000      18.00700000       3.19500000
H       21.45500000      18.41300000       3.47200000
H        7.91400000       4.17600000      21.80800000
H        8.18400000       4.61800000      22.34400000
H       21.76400000      14.37500000       0.39800000
H       22.39500000      14.67600000       0.65700000
H       19.97500000      21.15500000      12.42600000
H       19.88400000      21.19300000      13.16500000
H       15.47200000      12.36900000      20.50000000
H       15.32900000      11.64800000      20.62200000
H        4.35000000      11.48400000      14.47800000
H        4.60700000      11.58400000      13.78600000
H       21.41900000       1.41700000      12.10700000
H       21.11000000       1.98700000      11.74000000
H       22.44700000      12.10200000      21.55000000
H       22.30500000      12.81800000      21.39800000
H       13.22600000      17.85600000      16.00200000
H       12.76600000      17.94800000      16.58100000
H        5.89800000      21.96200000       0.83900000
H        5.52800000      22.42300000       1.29300000
H        8.70600000       8.07300000      15.23300000
H        9.12500000       7.81600000      15.79300000
H        8.13200000      17.04000000       1.88600000
H        7.40700000      17.02300000       2.06000000
H       15.19400000      -0.00100000       8.52200000
H       14.96900000       0.03100000       9.23100000
H       13.58000000       7.17700000      14.79100000
H       13.12600000       7.56100000      14.34300000
H       15.91000000      13.14800000      14.29100000
H       15.85300000      13.19100000      15.03300000
H       12.38400000       3.99800000      16.11900000
H       11.69500000       3.84900000      16.36100000
H        1.28500000      14.66800000      12.06100000
H        1.41100000      14.18600000      12.61500000
H        5.96700000      18.80400000      13.54100000
H        5.60200000      19.11700000      14.11000000
H       11.71700000      11.61100000       9.01600000
H       11.82400000      11.12700000       8.45900000
H       16.46600000      13.86000000      11.29500000
H       16.01900000      14.35900000      10.96900000
H       17.31300000      19.30300000      13.64900000
H       17.00000000      19.63500000      14.23800000
H       10.43500000      13.92000000      15.37500000
H        9.87400000      14.09700000      15.83300000
H       22.43100000      16.66900000      21.75000000
H       22.17200000      16.78400000      22.43900000
H       10.32100000      14.02000000      18.33300000
H       10.87900000      13.53700000      18.43700000
H        9.98800000      19.77300000      14.84000000
H       10.62100000      19.73900000      15.23200000
H        3.33200000      15.94800000      12.45400000
H        3.63800000      15.75400000      13.10600000
H        4.59700000       8.87800000      13.02400000
H        4.97700000       9.41400000      13.37600000
H       21.92600000       9.86100000       1.08200000
H       22.37200000      10.21500000       0.60100000
H        8.99900000      10.28600000      14.91200000
H        8.47400000      10.80800000      14.83000000
H       18.83300000       7.77900000      13.39700000
H       18.67200000       7.38200000      14.00600000
H        9.97000000       6.12800000      17.07000000
H        9.78000000       5.99300000      17.77800000
O        9.82900000      17.87300000       7.74800000
O       11.00400000      17.69700000       7.89100000
O       13.65800000       9.87600000       8.18100000
O       13.95600000      10.58100000       7.26200000
O       11.68600000       5.47400000       6.38900000
O       11.66200000       5.46900000       5.19300000
O       19.65400000       4.53500000       8.99600000
O       19.35800000       5.69100000       9.08400000
O        8.64200000      10.46400000      11.97500000
O        7.85100000       9.57500000      12.08800000
O       17.95600000       9.22500000       7.19800000
O       18.26000000       8.07100000       7.12400000
O       16.92000000       4.24800000      10.55300000
O       16.96200000       4.56700000       9.40100000
O       11.50000000       9.54100000      10.23100000
O       12.00300000       9.81500000      11.28100000
O       14.45000000      16.23900000      10.34300000
O       13.28600000      16.51200000      10.37700000
O       12.26700000      22.09000000       1.42200000
O       13.38900000      21.83500000       1.74800000
O        7.40200000       2.53500000      12.64700000
O        6.24300000       2.65400000      12.37800000
