4
Properties=species:S:1:pos:R:3:initial_charges:R:1 connectivity="_JSON [[0, 1, null], [1, 2, null]]" method=wb97x_v/cc-pvtz charge=0 spin=2 energy=-7.7432778491877094 pbc="F F F"
O        0.70367623      -0.37268641       0.00001751       0.00000000
O       -0.29423627       0.48057471      -0.00037435       0.00000000
H       -1.10360959      -0.06843216      -0.00028297       0.00000000
H       -2.57038844      -1.09046960       0.00018295       0.00000000
4
Properties=species:S:1:pos:R:3:initial_charges:R:1 connectivity="_JSON [[0, 1, null], [1, 2, null]]" method=wb97x_v/cc-pvtz charge=0 spin=2 energy=-7.773071756962836 pbc="F F F"
O        0.64073401      -0.35313493       0.00000592       0.00000000
O       -0.36670967       0.40501036      -0.00027073       0.00000000
H       -1.28268063      -0.22604933      -0.00030387       0.00000000
H       -2.25590150      -0.87683992       0.00011238       0.00000000
4
Properties=species:S:1:pos:R:3:initial_charges:R:1 connectivity="_JSON [[0, 1, null], [2, 3, null]]" method=wb97x_v/cc-pvtz charge=0 spin=2 energy=-10.163215255418375 pbc="F F F"
O        0.81186222      -0.30935897       0.00001320       0.00000000
O        0.24153375       0.74299054      -0.00032385       0.00000000
H       -1.88771829      -0.48908307      -0.00024587       0.00000000
H       -2.43023546      -0.99556234       0.00010023       0.00000000
