2
Properties=species:S:1:pos:R:3:initial_charges:R:1 connectivity="_JSON [[0, 1, null]]" method=wb97x_v/cc-pvtz charge=0 spin=1 energy=-4.589933095795309 pbc="F F F"
O        0.00000000       0.00000000       0.00000000       0.00000000
H        0.00000000       0.00000000       0.97519183       0.00000000
2
Properties=species:S:1:pos:R:3:initial_charges:R:1 connectivity="_JSON []" method=wb97x_v/cc-pvtz charge=0 spin=1 energy=-1.0824089224011824 pbc="F F F"
O        0.00000000       0.00000000       0.00000000       0.00000000
H        0.00000000       0.00000000       1.70000000       0.00000000
2
Properties=species:S:1:pos:R:3:initial_charges:R:1 connectivity="_JSON []" method=wb97x_v/cc-pvtz charge=0 spin=1 energy=-0.0028771534185063822 pbc="F F F"
O        0.00000000       0.00000000       0.00000000       0.00000000
H        0.00000000       0.00000000       4.00000000       0.00000000
