5
Properties=species:S:1:pos:R:3:initial_charges:R:1 connectivity="_JSON [[0, 1, null], [0, 2, null], [3, 4, null]]" pbc="F F F"
O        0.90522911      -0.03352590       0.10400260       0.00000000
O       -0.04743881       0.86929638       0.02747870       0.00000000
H        1.13231284      -0.24569657      -0.81809984       0.00000000
H       -1.69941602      -0.79864649       0.04263158       0.00000000
H       -2.02537229      -1.45640818      -0.07371610       0.00000000
5
Properties=species:S:1:pos:R:3:initial_charges:R:1 connectivity="_JSON [[0, 1, null], [0, 2, null], [1, 3, null]]" pbc="F F F"
O        0.75477557      -0.16150948       0.11870773       0.00000000
O       -0.49617672       0.40990100      -0.01346493       0.00000000
H        1.06718383      -0.20768292      -0.79528604       0.00000000
H       -1.22618881      -0.46658631       0.01476878       0.00000000
H       -1.83427903      -1.23910306      -0.04242856       0.00000000
5
Properties=species:S:1:pos:R:3:initial_charges:R:1 connectivity="_JSON [[0, 1, null], [0, 2, null], [1, 3, null]]" pbc="F F F"
O        0.79699309      -0.20236156       0.10484857       0.00000000
O       -0.40945692       0.55160805      -0.03472279       0.00000000
H        1.13451670      -0.17965187      -0.79825286       0.00000000
H       -1.07243041      -0.14241784       0.07237224       0.00000000
H       -2.18430743      -1.69215775      -0.06194815       0.00000000
