4
Properties=species:S:1:pos:R:3:initial_charges:R:1 connectivity="_JSON [[2, 3, null]]" method=wb97x_v/cc-pvtz charge=0 spin=1 energy=-9.290017715390663 pbc="F F F"
H       -2.07783336       0.17220359       0.02900938       0.00000000
H       -1.53162069      -0.33400491       0.00210870       0.00000000
H        0.61063487       0.92542201      -0.03084986       0.00000000
O        0.78073256      -0.03048517      -0.09567442       0.00000000
4
Properties=species:S:1:pos:R:3:initial_charges:R:1 connectivity="_JSON [[2, 3, null]]" method=wb97x_v/cc-pvtz charge=0 spin=1 energy=-9.177899980566957 pbc="F F F"
H       -1.85193375       0.11285026       0.02243844       0.00000000
H       -0.98112917      -0.12900097      -0.01888177       0.00000000
H        0.39324822       0.85155001      -0.02745482       0.00000000
O        0.22172810      -0.10226369      -0.07150800       0.00000000
4
Properties=species:S:1:pos:R:3:initial_charges:R:1 connectivity="_JSON [[1, 3, null], [2, 3, null]]" method=wb97x_v/cc-pvtz charge=0 spin=1 energy=-9.859501456660706 pbc="F F F"
H       -2.54983436       0.25816794       0.05504220       0.00000000
H       -0.52312637      -0.30216805      -0.04319936       0.00000000
H        0.44218617       0.86774559      -0.02882756       0.00000000
O        0.41268796      -0.09060990      -0.07842143       0.00000000
