2
Properties=species:S:1:pos:R:3:initial_charges:R:1 connectivity="_JSON []" pbc="F F F"
H        0.00000000       0.00000000       0.00000000       0.00000000
H        0.00000000       0.00000000       0.74451338       0.00000000
2
Properties=species:S:1:pos:R:3:initial_charges:R:1 connectivity="_JSON []" pbc="F F F"
H        0.00000000       0.00000000       0.00000000       0.00000000
H        0.00000000       0.00000000       1.50000000       0.00000000
2
Properties=species:S:1:pos:R:3:initial_charges:R:1 connectivity="_JSON []" pbc="F F F"
H        0.00000000       0.00000000       0.00000000       0.00000000
H        0.00000000       0.00000000       3.00000000       0.00000000
