3
Properties=species:S:1:pos:R:3:initial_charges:R:1 connectivity="_JSON [[0, 2, null]]" method=wb97x_v/cc-pvtz charge=0 spin=2 energy=-4.63092459212345 pbc="F F F"
H       -0.00000001       0.00000003      -1.19236052       0.00000000
O        0.00000002      -0.00000001       0.82435836       0.00000000
H        0.00000000      -0.00000002      -1.93516542       0.00000000
3
Properties=species:S:1:pos:R:3:initial_charges:R:1 connectivity="_JSON []" method=wb97x_v/cc-pvtz charge=0 spin=2 energy=-4.235970853959296 pbc="F F F"
H       -0.00000001       0.00000000      -0.85755041       0.00000000
O        0.00000000       0.00000000       0.32763544       0.00000000
H        0.00000000       0.00000000      -1.77325303       0.00000000
3
Properties=species:S:1:pos:R:3:initial_charges:R:1 connectivity="_JSON [[0, 1, null]]" method=wb97x_v/cc-pvtz charge=0 spin=2 energy=-4.541373487496816 pbc="F F F"
H       -0.00000001      -0.00000002      -0.53023768       0.00000000
O       -0.00000001       0.00000000       0.44719031       0.00000000
H       -0.00000000       0.00000001      -2.22012104       0.00000000
