6
Properties=species:S:1:pos:R:3:initial_charges:R:1 connectivity="_JSON [[0, 1, null], [1, 2, null], [2, 3, null], [4, 5, null]]" method=wb97x_v/cc-pvtz charge=0 spin=2 energy=-17.140346693537918 pbc="F F F"
H       -1.23144835       1.04990053       0.66052318       0.00000000
O       -1.29068309       0.60307953      -0.19253965       0.00000000
O       -1.26049511      -0.76800708       0.20867418       0.00000000
H       -0.37465230      -1.02671106      -0.07590833       0.00000000
O        1.71519962      -0.42415684      -0.11736771       0.00000000
O        1.65476904       0.75594130       0.07596416       0.00000000
6
Properties=species:S:1:pos:R:3:initial_charges:R:1 connectivity="_JSON [[0, 1, null], [1, 2, null], [3, 4, null], [4, 5, null]]" method=wb97x_v/cc-pvtz charge=0 spin=2 energy=-15.724766672201774 pbc="F F F"
H       -1.09867652       1.05850440       0.66036769       0.00000000
O       -1.29297269       0.59919111      -0.17126791       0.00000000
O       -1.10060595      -0.71667311       0.10683684       0.00000000
H        0.13508687      -0.84104504      -0.02390108       0.00000000
O        1.26063480      -0.57418177      -0.07702165       0.00000000
O        1.30922332       0.66425079       0.06433194       0.00000000
6
Properties=species:S:1:pos:R:3:initial_charges:R:1 connectivity="_JSON [[0, 1, null], [1, 2, null], [3, 4, null], [4, 5, null]]" method=wb97x_v/cc-pvtz charge=0 spin=2 energy=-16.101939082451008 pbc="F F F"
H       -0.68655691       0.99274647       0.26615964       0.00000000
O       -1.59653892       0.61299049       0.18332478       0.00000000
O       -1.38778792      -0.66789238      -0.00411626       0.00000000
H        0.41029497      -0.92021165      -0.06320056       0.00000000
O        1.32998349      -0.55192084      -0.03201179       0.00000000
O        1.14329510       0.72433443       0.20918964       0.00000000
