4
Properties=species:S:1:pos:R:3:initial_charges:R:1 connectivity="_JSON [[0, 1, null], [1, 2, null]]" pbc="F F F"
O        0.64866527      -0.68726595       0.00000009       0.00000000
O        0.81975402       0.60847100      -0.00000005       0.00000000
H       -0.10896142       0.93926939      -0.00000009       0.00000000
O       -1.61499632      -0.19559210       0.00000004       0.00000000
4
Properties=species:S:1:pos:R:3:initial_charges:R:1 connectivity="_JSON [[0, 1, null], [1, 2, null]]" pbc="F F F"
O        0.71612925      -0.66383692      -0.00000005       0.00000000
O        0.80476328       0.58447494       0.00000002       0.00000000
H       -0.34895157       0.73880169       0.00000005       0.00000000
O       -1.42747929       0.00544265      -0.00000001       0.00000000
4
Properties=species:S:1:pos:R:3:initial_charges:R:1 connectivity="_JSON [[0, 1, null], [2, 3, null]]" pbc="F F F"
O        1.12557848      -0.77155686      -0.00000006       0.00000000
O        1.24611157       0.42032799       0.00000002       0.00000000
H       -1.00055860       0.88043586       0.00000006       0.00000000
O       -1.62666979       0.13567536      -0.00000001       0.00000000
