5
Properties=species:S:1:pos:R:3:initial_charges:R:1 connectivity="_JSON [[0, 1, null], [2, 3, null], [2, 4, null]]" method=wb97x_v/cc-pvtz charge=0 spin=1 energy=-14.720899552003221 pbc="F F F"
H        0.87231980      -0.54403684       0.22213897       0.00000000
O        1.65726214       0.01455988       0.06095871       0.00000000
O       -1.13713539      -0.21423843       0.18275426       0.00000000
H       -0.96785766       0.72876266       0.25552709       0.00000000
H       -2.06711670      -0.29540471      -0.03916628       0.00000000
5
Properties=species:S:1:pos:R:3:initial_charges:R:1 connectivity="_JSON [[0, 1, null], [2, 3, null]]" method=wb97x_v/cc-pvtz charge=0 spin=1 energy=-11.361714471575974 pbc="F F F"
H        1.07967441      -0.71041266       0.47573914       0.00000000
O        0.90295847       0.04911655      -0.09023817       0.00000000
O       -0.70728164      -0.02901010      -0.02579493       0.00000000
H       -0.82235326       0.82816051       0.40369182       0.00000000
H       -2.09552578      -0.44821172      -0.08118515       0.00000000
5
Properties=species:S:1:pos:R:3:initial_charges:R:1 connectivity="_JSON [[0, 1, null], [1, 2, null], [2, 3, null]]" method=wb97x_v/cc-pvtz charge=0 spin=1 energy=-11.561825344719184 pbc="F F F"
H        1.16052219      -0.70524703       0.49318070       0.00000000
O        1.01768608       0.09889723      -0.01971843       0.00000000
O       -0.40844430       0.10540715      -0.12190727       0.00000000
H       -0.63570791       0.86025112       0.43406995       0.00000000
H       -2.77658383      -0.66966613      -0.10341208       0.00000000
