3
Properties=species:S:1:pos:R:3:initial_charges:R:1 connectivity="_JSON [[0, 1, null], [0, 2, null]]" method=wb97x_v/cc-pvtz charge=0 spin=1 energy=-7.752903825084062 pbc="F F F"
O        0.76950092       0.10799686      -0.00000025       0.00000000
O       -0.49169625      -0.26621775       0.00000001       0.00000000
H        1.28662911      -0.71706048       0.00000001       0.00000000
3
Properties=species:S:1:pos:R:3:initial_charges:R:1 connectivity="_JSON [[0, 1, null]]" method=wb97x_v/cc-pvtz charge=0 spin=1 energy=-5.7063550796268805 pbc="F F F"
O        0.56872867       0.17862057      -0.00000026       0.00000000
O       -0.61809921      -0.17756452      -0.00000001       0.00000000
H        1.61380432      -0.87633743       0.00000004       0.00000000
3
Properties=species:S:1:pos:R:3:initial_charges:R:1 connectivity="_JSON [[0, 1, null]]" method=wb97x_v/cc-pvtz charge=0 spin=1 energy=-3.155968814019856 pbc="F F F"
O        0.28519672       0.41690561       0.00000035       0.00000000
O       -0.79608282      -0.09823972       0.00000001       0.00000000
H        2.07531949      -1.19394720      -0.00000012       0.00000000
