5
Properties=species:S:1:pos:R:3:initial_charges:R:1 connectivity="_JSON [[0, 1, null], [2, 4, null], [3, 4, null]]" pbc="F F F"
O        1.23811494      -0.60370514      -0.01964889       0.00000000
O        1.31979083       0.58560369       0.09544116       0.00000000
H       -1.01784455      -0.55440442      -0.11988735       0.00000000
H       -1.54366986       0.69015894       0.57017353       0.00000000
O       -1.82615412      -0.06764085       0.05282595       0.00000000
5
Properties=species:S:1:pos:R:3:initial_charges:R:1 connectivity="_JSON [[0, 1, null], [0, 2, null], [3, 4, null]]" pbc="F F F"
O        0.69206640      -0.61215611      -0.02210642       0.00000000
O        1.10397770       0.56486209       0.08700161       0.00000000
H       -0.40904889      -0.54668523      -0.14949673       0.00000000
H       -1.52314578       0.72854815       0.58591109       0.00000000
O       -1.69361219      -0.08455668       0.07759484       0.00000000
5
Properties=species:S:1:pos:R:3:initial_charges:R:1 connectivity="_JSON [[0, 1, null], [0, 2, null], [3, 4, null]]" pbc="F F F"
O        0.78235148      -0.65383497      -0.12631707       0.00000000
O        0.98916705       0.61299787       0.15640539       0.00000000
H       -0.19760693      -0.73211475      -0.14284537       0.00000000
H       -1.50713260       0.80181971       0.56610114       0.00000000
O       -1.89654233       0.02114514       0.12556014       0.00000000
