4
Properties=species:S:1:pos:R:3:initial_charges:R:1 connectivity="_JSON [[0, 1, null], [1, 2, null]]" pbc="F F F"
H        0.75325889      -0.87805222      -0.19425203       0.00000000
O        1.15978191      -0.06964171       0.16366686       0.00000000
O        0.17567800       0.79283140       0.28665546       0.00000000
H       -2.30884441       0.49859505      -0.27072977       0.00000000
4
Properties=species:S:1:pos:R:3:initial_charges:R:1 connectivity="_JSON [[0, 1, null], [1, 2, null]]" pbc="F F F"
H        0.81129358      -0.87271019      -0.18174443       0.00000000
O        0.99857775       0.01201305       0.16273698       0.00000000
O       -0.35936842       0.62838967       0.13128581       0.00000000
H       -1.67062854       0.57603996      -0.12693783       0.00000000
4
Properties=species:S:1:pos:R:3:initial_charges:R:1 connectivity="_JSON [[0, 1, null], [2, 3, null]]" pbc="F F F"
H        0.78108857      -0.44133298      -0.03581332       0.00000000
O        1.73944214      -0.56820521       0.09424718       0.00000000
O       -0.90295606       0.75270187       0.07592571       0.00000000
H       -1.83770027       0.60056885      -0.14901911       0.00000000
