4
Properties=species:S:1:pos:R:3:initial_charges:R:1 connectivity="_JSON [[0, 1, null], [2, 3, null]]" method=wb97x_v/cc-pvtz charge=0 spin=2 energy=-8.251219431149664 pbc="F F F"
H        1.35056747      -0.92998942      -0.00103809       0.00000000
O        1.32089469       0.04064989       0.00009608       0.00000000
H       -0.49178432       0.49523414       0.00413007       0.00000000
O       -1.09032517      -0.27947681      -0.00071573       0.00000000
4
Properties=species:S:1:pos:R:3:initial_charges:R:1 connectivity="_JSON [[0, 1, null], [1, 2, null], [2, 3, null]]" method=wb97x_v/cc-pvtz charge=0 spin=2 energy=-9.28732445626479 pbc="F F F"
H        1.22903496      -0.83837335      -0.00078796       0.00000000
O        1.06083181       0.11557244       0.00083817       0.00000000
H       -0.08850043       0.29171048       0.00280267       0.00000000
O       -1.11201506      -0.24249230      -0.00038043       0.00000000
4
Properties=species:S:1:pos:R:3:initial_charges:R:1 connectivity="_JSON [[0, 1, null], [1, 2, null]]" method=wb97x_v/cc-pvtz charge=0 spin=2 energy=-9.942531770472943 pbc="F F F"
H        1.20649379      -0.80189081       0.00009573       0.00000000
O        1.25252784       0.15699632      -0.00082323       0.00000000
H        0.33195059       0.43181412       0.00546696       0.00000000
O       -1.70162090      -0.46050235      -0.00226701       0.00000000
