200
Lattice="22.43773069742029 0.0 0.0 0.0 22.43773069742029 0.0 0.0 0.0 22.43773069742029" Properties=species:S:1:pos:R:3 connectivity="_JSON [[0, 1, null], [2, 3, null], [4, 5, null], [6, 7, null], [8, 9, null], [10, 11, null], [12, 13, null], [14, 15, null], [16, 17, null], [18, 19, null], [20, 21, null], [22, 23, null], [24, 25, null], [26, 27, null], [28, 29, null], [30, 31, null], [32, 33, null], [34, 35, null], [36, 37, null], [38, 39, null], [40, 41, null], [42, 43, null], [44, 45, null], [46, 47, null], [48, 49, null], [50, 51, null], [52, 53, null], [54, 55, null], [56, 57, null], [58, 59, null], [60, 61, null], [62, 63, null], [64, 65, null], [66, 67, null], [68, 69, null], [70, 71, null], [72, 73, null], [74, 75, null], [76, 77, null], [78, 79, null], [80, 81, null], [82, 83, null], [84, 85, null], [86, 87, null], [88, 89, null], [90, 91, null], [92, 93, null], [94, 95, null], [96, 97, null], [98, 99, null], [100, 101, null], [102, 103, null], [104, 105, null], [106, 107, null], [108, 109, null], [110, 111, null], [112, 113, null], [114, 115, null], [116, 117, null], [118, 119, null], [120, 121, null], [122, 123, null], [124, 125, null], [126, 127, null], [128, 129, null], [130, 131, null], [132, 133, null], [134, 135, null], [136, 137, null], [138, 139, null], [140, 141, null], [142, 143, null], [144, 145, null], [146, 147, null], [148, 149, null], [150, 151, null], [152, 153, null], [154, 155, null], [156, 157, null], [158, 159, null], [160, 161, null], [162, 163, null], [164, 165, null], [166, 167, null], [168, 169, null], [170, 171, null], [172, 173, null], [174, 175, null], [176, 177, null], [178, 179, null], [180, 181, null], [182, 183, null], [184, 185, null], [186, 187, null], [188, 189, null], [190, 191, null], [192, 193, null], [194, 195, null], [196, 197, null], [198, 199, null]]" pbc="T T T"
H        0.07900000       6.07600000      13.30200000
H        0.21800000       6.17300000      12.57700000
H       16.33700000       8.45300000      21.65100000
H       16.75500000       7.95300000      21.29100000
H        5.32100000      14.97900000      10.48500000
H        5.62600000      14.43800000      10.89700000
H       17.25100000      22.39200000      13.61000000
H       16.83900000      22.35900000      14.23000000
H        5.57100000      11.44200000      13.12000000
H        5.25900000      12.07600000      13.35700000
H        9.84200000       5.64800000       6.86200000
H        9.53300000       5.52900000       7.52900000
H        3.15500000      11.32900000      13.00600000
H        3.11600000      12.05200000      12.83200000
H        7.49100000       3.80600000      14.65700000
H        7.68400000       3.77300000      13.93800000
H        5.56900000      10.86400000      16.12600000
H        5.13700000      11.43700000      15.92400000
H       10.65900000      13.08200000      14.67700000
H       11.26700000      13.16100000      15.10100000
H        8.71000000       0.08400000       0.44700000
H        8.76500000       0.82400000       0.51400000
H       20.53800000       3.42700000       3.10800000
H       20.45800000       2.77200000       2.76100000
H       10.09800000       4.94600000      12.38500000
H        9.51000000       4.49600000      12.30600000
H       13.94800000      18.29800000      11.71600000
H       13.36500000      18.38000000      11.25900000
H       14.35300000      22.35000000      20.72500000
H       14.29100000      22.43600000      21.46200000
H       22.04400000       7.24200000       0.60800000
H       22.42900000       7.05700000      -0.00300000
H       10.90400000      22.21700000      15.02900000
H       11.13100000      22.43300000      14.35300000
H       17.86500000       5.66600000      22.47500000
H       17.44500000       6.28100000      22.45600000
H        8.74100000      13.65600000      12.89400000
H        8.40300000      14.19000000      12.49900000
H       15.68100000      10.23600000      14.95000000
H       16.10100000      10.26400000      15.56400000
H       10.30100000      14.12000000      10.70600000
H        9.80000000      13.60400000      10.90100000
H       11.72800000       8.50700000       5.29800000
H       11.14900000       8.04100000       5.24800000
H       22.26900000       0.03000000       2.82800000
H       22.33300000       0.07800000       3.56800000
H        0.00400000      22.20300000       6.25600000
H        0.45300000      22.43600000       5.70900000
H       11.85200000      20.40900000      11.15000000
H       11.17800000      20.57700000      10.88000000
H        1.76700000      18.85000000      10.79600000
H        1.93200000      18.64300000      11.49200000
H       20.84800000      13.37400000      12.45900000
H       20.92700000      12.73100000      12.09100000
H       15.30500000       5.69500000      13.86200000
H       14.79500000       6.18100000      14.10300000
H       10.11900000      17.29100000      11.32000000
H        9.57600000      16.85800000      11.05000000
H        0.52700000      17.65700000      18.93800000
H        0.05400000      17.39300000      18.42600000
H        5.87800000       9.37900000      12.06300000
H        5.53000000       9.53300000      11.42300000
H        0.27100000      15.25700000      12.38500000
H        0.46000000      15.56800000      11.73500000
H       21.00100000       0.82200000      14.20500000
H       20.88400000       0.86100000      14.94000000
H       19.56900000      12.80800000      15.03100000
H       19.66500000      13.30300000      14.48200000
H       22.02200000      12.84300000       7.99700000
H       21.94100000      13.08900000       8.69500000
H        1.92900000      13.79200000      11.28500000
H        2.09600000      14.32000000      10.78500000
H       12.92300000      13.66500000      13.39200000
H       12.61600000      14.14500000      12.91200000
H       14.08800000       1.39600000      14.38200000
H       13.56500000       1.49600000      13.86100000
H       18.71000000      11.69900000      12.01600000
H       18.79400000      10.99700000      11.78200000
H        3.30700000      14.54400000      14.31500000
H        3.35300000      15.05000000      13.77000000
H        0.71400000       6.55600000      15.67400000
H        0.01100000       6.72200000      15.49200000
H        6.89200000       8.81000000      21.85600000
H        7.09300000       9.25100000      22.42200000
H       12.94900000       0.12900000      12.20000000
H       12.77600000       0.07200000      11.47800000
H       20.02800000       9.06000000      13.48700000
H       20.27700000       9.20900000      14.17300000
H        8.32300000      10.60400000       8.24400000
H        7.86700000      11.10900000       8.54700000
H        8.22600000       9.72500000      13.97000000
H        8.14700000      10.38200000      14.31400000
H        0.36300000      22.07800000      15.78600000
H        0.35500000      22.41000000      16.45300000
H       17.01700000      13.84800000      10.40800000
H       17.13600000      13.48800000       9.76600000
H       12.80100000      11.31700000      11.99100000
H       12.42700000      11.70500000      12.50500000
H        6.68500000       6.05300000      10.96400000
H        7.15200000       6.52200000      10.62200000
O       12.04700000       0.83600000      17.09600000
O       11.22100000       0.80800000      17.96000000
O        1.10400000      21.93600000       8.12400000
O        0.10600000      22.10400000       8.76200000
O        9.60700000      11.53200000      12.12700000
O       10.08800000      11.47800000      13.22100000
O       14.70500000      19.91200000       0.00200000
O       15.11900000      19.21400000       0.88100000
O       13.56500000      14.25200000      16.47900000
O       12.67400000      14.71100000      17.13100000
O       10.65600000      21.57300000      21.04500000
O       10.95800000      22.42500000      21.82900000
O        9.60000000       8.75500000      11.78100000
O        9.52300000       9.53800000      10.88100000
O       17.96300000      17.46300000       5.45600000
O       17.78200000      17.53200000       4.27600000
O        8.92300000       4.74700000      21.86800000
O        8.61100000       3.61300000      22.08200000
O       22.10600000      14.21000000       1.17300000
O       22.47900000      14.57500000       0.09700000
O       16.89200000       7.73200000       4.01500000
O       15.70600000       7.84200000       3.91000000
O        5.35000000      14.16400000      21.80000000
O        6.50300000      13.94100000      21.57500000
O       12.08500000      16.86600000      15.51400000
O       11.14500000      16.41700000      14.92800000
O       19.23000000       3.66200000      10.83200000
O       19.97200000       2.75200000      11.05700000
O       22.02000000      12.70000000      21.06400000
O       22.40500000      12.38500000      22.15200000
O        5.94200000      14.64300000      13.88600000
O        5.84300000      14.76600000      15.07100000
O        5.89200000      22.08800000       0.49500000
O        5.52900000      22.13900000       1.63300000
O       18.75100000       7.89100000      11.42700000
O       17.95100000       8.77400000      11.53600000
O        7.81500000      16.99400000       1.37800000
O        7.72400000      17.06400000       2.56800000
O       15.66200000       0.27300000       8.85100000
O       14.49800000       0.00200000       8.90000000
O       10.28200000      11.50500000      16.19400000
O       10.73500000      10.57000000      15.60200000
O       16.05700000      13.02000000      14.11000000
O       15.70500000      13.31900000      15.21400000
O       15.41700000       3.97900000      19.10400000
O       15.94500000       3.58800000      18.10400000
O       16.07700000       7.50200000      12.78600000
O       16.01100000       6.64300000      11.95700000
O        7.07100000      14.98700000      17.79000000
O        6.54100000      15.67400000      16.96600000
O       15.78000000       4.52300000      15.76500000
O       14.95100000       4.84400000      16.56500000
O       13.84200000       9.02900000      14.89900000
O       13.44500000       9.96900000      15.52300000
O        7.81900000      10.53600000      16.55400000
O        8.54200000       9.58600000      16.62900000
O       15.55900000      20.17200000       5.36100000
O       14.85900000      19.95600000       6.30700000
O       21.91200000      17.04100000      21.33700000
O       22.32200000      16.77300000      22.42800000
O       16.48400000       7.70900000      15.57100000
O       17.67600000       7.61900000      15.60200000
O        5.54900000      12.99400000       7.81500000
O        6.11500000      14.00100000       8.12500000
O        7.15200000       8.33400000      18.10200000
O        7.19700000       8.23300000      19.29300000
O        3.92600000       7.03800000       8.70800000
O        3.45400000       6.21700000       9.43800000
O       22.14200000      10.07300000       0.20400000
O       21.22000000      10.03200000       0.96400000
O       12.95100000      16.91700000      13.16600000
O       14.02800000      17.02100000      13.67600000
O       10.48500000      12.92800000       7.45100000
O        9.54500000      13.18200000       6.75800000
O        6.45900000       9.08200000       9.01800000
O        5.45500000       8.83000000       8.42000000
O       17.36100000      16.21000000       8.21400000
O       16.98400000      17.02500000       9.00400000
O        5.59800000       4.93400000       0.03300000
O        6.01300000       5.48900000       1.00800000
O       12.61800000       5.42100000       4.71800000
O       12.96300000       4.60400000       5.52100000
O       10.98700000       5.15800000       9.95300000
O       11.29700000       5.85100000       9.03000000
O        6.54300000      12.53000000       9.72300000
O        7.54100000      12.80400000      10.32200000
O        7.61700000      11.90100000       6.02100000
O        6.62500000      12.40500000       5.58000000
O        8.43500000       0.61000000       8.68400000
O        8.46700000       0.60200000       7.48800000
O       21.99200000      14.65900000      15.80400000
O       21.99700000      13.63100000      16.41400000
O       10.83700000      16.03300000       9.06500000
O       12.01700000      15.89000000       8.93400000
O       12.81200000      21.82300000       1.41100000
O       12.99600000      21.91900000       2.58900000
O        9.04000000       0.02600000      13.72600000
O        8.87400000       1.15000000      13.35200000
O       11.92200000       7.68100000      14.91700000
O       12.50600000       7.06000000      15.75500000
