200
Lattice="22.43773069742029 0.0 0.0 0.0 22.43773069742029 0.0 0.0 0.0 22.43773069742029" Properties=species:S:1:pos:R:3:momenta:R:3:forces:R:3 connectivity="_JSON [[0, 1, null], [2, 3, null], [4, 5, null], [6, 7, null], [8, 9, null], [10, 11, null], [12, 13, null], [14, 15, null], [16, 17, null], [18, 19, null], [20, 21, null], [22, 23, null], [24, 25, null], [26, 27, null], [28, 29, null], [30, 31, null], [32, 33, null], [34, 35, null], [36, 37, null], [38, 39, null], [40, 41, null], [42, 43, null], [44, 45, null], [46, 47, null], [48, 49, null], [50, 51, null], [52, 53, null], [54, 55, null], [56, 57, null], [58, 59, null], [60, 61, null], [62, 63, null], [64, 65, null], [66, 67, null], [68, 69, null], [70, 71, null], [72, 73, null], [74, 75, null], [76, 77, null], [78, 79, null], [80, 81, null], [82, 83, null], [84, 85, null], [86, 87, null], [88, 89, null], [90, 91, null], [92, 93, null], [94, 95, null], [96, 97, null], [98, 99, null], [100, 101, null], [102, 103, null], [104, 105, null], [106, 107, null], [108, 109, null], [110, 111, null], [112, 113, null], [114, 115, null], [116, 117, null], [118, 119, null], [120, 121, null], [122, 123, null], [124, 125, null], [126, 127, null], [128, 129, null], [130, 131, null], [132, 133, null], [134, 135, null], [136, 137, null], [138, 139, null], [140, 141, null], [142, 143, null], [144, 145, null], [146, 147, null], [148, 149, null], [150, 151, null], [152, 153, null], [154, 155, null], [156, 157, null], [158, 159, null], [160, 161, null], [162, 163, null], [164, 165, null], [166, 167, null], [168, 169, null], [170, 171, null], [172, 173, null], [174, 175, null], [176, 177, null], [178, 179, null], [180, 181, null], [182, 183, null], [184, 185, null], [186, 187, null], [188, 189, null], [190, 191, null], [192, 193, null], [194, 195, null], [196, 197, null], [198, 199, null]]" energy=-85.78005085153407 pbc="T T T"
H        0.07900000       6.07600000      13.30200000      -0.15794267       0.49084537      -0.11053001      -0.15852009      -0.11063149       0.82677783
H        0.21800000       6.17300000      12.57700000      -0.36735420      -0.50199070       0.13607686       0.15850727       0.11060274      -0.82681171
H       16.33700000       8.45300000      21.65100000       0.02437890      -0.42818399       0.76700382      -0.47701056       0.57057729       0.41082421
H       16.75500000       7.95300000      21.29100000      -0.40107300       0.07909178      -0.13598663       0.47699897      -0.57057913      -0.41081366
H        5.32100000      14.97900000      10.48500000       0.45622135       0.00508584      -0.23659993      -0.36858306       0.64979970      -0.51940679
H        5.62600000      14.43800000      10.89700000       0.54456529       0.01842398       0.53829061       0.37944232      -0.67862317       0.48598477
H       17.25100000      22.39200000      13.61000000      -0.35915531       0.19301987       0.38381019       0.46099620       0.03692643      -0.69371679
H       16.83900000      22.35900000      14.23000000       0.03451329       0.02345590       0.21835449      -0.46098130      -0.03692233       0.69372239
H        5.57100000      11.44200000      13.12000000      -0.36506278      -0.22250791      -0.03673180       0.34924457      -0.70936872      -0.26748226
H        5.25900000      12.07600000      13.35700000      -0.36862823       0.31521856       0.11976386      -0.34961928       0.71217997       0.26474951
H        9.84200000       5.64800000       6.86200000      -0.16124794       0.36143541       0.48217160       0.37653653       0.14222249      -0.79112317
H        9.53300000       5.52900000       7.52900000       0.38268153      -0.68428067      -0.18340400      -0.36182085      -0.14240512       0.81083951
H        3.15500000      11.32900000      13.00600000       0.37143298       0.37617510       0.00025534       0.04420802      -0.82159566       0.19763064
H        3.11600000      12.05200000      12.83200000      -0.31027297       0.24360463       0.21319745      -0.04438918       0.82140306      -0.19778463
H        7.49100000       3.80600000      14.65700000      -0.22508586      -0.48044348      -0.05748770      -0.21580301       0.03624764       0.80463685
H        7.68400000       3.77300000      13.93800000       0.41977563       0.08193202      -0.02655836       0.21603441      -0.03810926      -0.80434538
H        5.56900000      10.86400000      16.12600000      -0.13791383      -0.08381115       0.29121837       0.50526317      -0.65943439       0.24387231
H        5.13700000      11.43700000      15.92400000       0.35965497      -0.05038418       0.42081579      -0.49121457       0.65595181      -0.22339035
H       10.65900000      13.08200000      14.67700000       0.46794560       0.31950340       0.28847830      -0.91450714      -0.19949303      -0.60215667
H       11.26700000      13.16100000      15.10100000      -0.35356265      -0.40447913      -0.16703903       0.88272068       0.06572394       0.66373493
H        8.71000000       0.08400000       0.44700000       0.24438311       0.31229346       0.19515414      -0.04833614      -0.89842436      -0.09069731
H        8.76500000       0.82400000       0.51400000       0.26486079       0.39385711       0.54441586       0.06919117       0.89254701       0.07659949
H       20.53800000       3.42700000       3.10800000      -0.60303749      -0.40832455      -0.48732561       0.08833597       0.72326250       0.38316245
H       20.45800000       2.77200000       2.76100000      -0.05399066       0.72502986       0.26475123      -0.08833625      -0.72326239      -0.38316308
H       10.09800000       4.94600000      12.38500000      -0.37018432      -0.48299624      -0.32779441       0.67793036       0.51960455       0.08757448
H        9.51000000       4.49600000      12.30600000      -0.37406129      -0.33289855       0.49604240      -0.67600392      -0.51835110      -0.09298338
H       13.94800000      18.29800000      11.71600000      -0.40773391      -0.12216353      -0.47885373       0.73891202      -0.14934426       0.63936539
H       13.36500000      18.38000000      11.25900000      -0.05660547       0.54355552       0.35606828      -0.73220417       0.10201688      -0.58193091
H       14.35300000      22.35000000      20.72500000       0.32032541       0.07458599      -0.43019250       0.07029958      -0.10038587      -0.85270310
H       14.29100000      22.43600000      21.46200000       0.61622173      -0.14275893       0.05856500      -0.07382152       0.09824092       0.85633862
H       22.04400000       7.24200000       0.60800000       0.23827293       0.04682525      -0.93658642      -0.42967352       0.20834645       0.68198967
H       22.42900000       7.05700000      -0.00300000      -0.23699753       0.14511707       0.12091611       0.42928964      -0.20528386      -0.68087944
H       10.90400000      22.21700000      15.02900000       0.18137738       0.08024170       0.27533052      -0.32970222      -0.28060749       0.90560201
H       11.13100000      22.43300000      14.35300000      -0.35068868      -0.46145176       0.35418718       0.27228425       0.29848496      -0.91300736
H       17.86500000       5.66600000      22.47500000       0.47945919      -0.18723153      -0.12933543       0.47246960      -0.69184109       0.02137637
H       17.44500000       6.28100000      22.45600000      -0.30367985      -0.08956719       0.77054604      -0.47249570       0.69185089      -0.02137087
H        8.74100000      13.65600000      12.89400000      -0.26489768      -0.93438365       0.31052654       0.40442205      -0.68337567       0.47861611
H        8.40300000      14.19000000      12.49900000      -0.28455528      -0.14053364       0.56222736      -0.42355367       0.63273585      -0.47047247
H       15.68100000      10.23600000      14.95000000      -0.01929855       0.57632182      -0.67872123      -0.70134079      -0.07151464      -0.86067388
H       16.10100000      10.26400000      15.56400000       0.56724200      -0.29790898      -0.77840294       0.60631615       0.02566630       0.88751209
H       10.30100000      14.12000000      10.70600000       0.34210016       0.71335158      -0.07658047       0.62122495       0.62867109      -0.26123457
H        9.80000000      13.60400000      10.90100000      -0.20853874       0.42057588      -0.74753727      -0.62394358      -0.66665896       0.22274462
H       11.72800000       8.50700000       5.29800000       0.17019449       0.07134826      -0.15365136       0.65387929       0.52589262       0.05600792
H       11.14900000       8.04100000       5.24800000      -0.41295445      -0.02926503      -0.02952852      -0.65290493      -0.52590481      -0.05702928
H       22.26900000       0.03000000       2.82800000       0.07290249      -0.26414793       0.14777800      -0.07356684      -0.05517294      -0.85047301
H       22.33300000       0.07800000       3.56800000       0.02980216      -0.41134441      -0.15668443       0.07352204       0.05515659       0.85020939
H        0.00400000      22.20300000       6.25600000       0.69131869       0.35423793       0.55230486      -0.55030917      -0.29198065       0.72737353
H        0.45300000      22.43600000       5.70900000       0.26605096      -0.86491336       0.51754236       0.55806533       0.28722928      -0.67017359
H       11.85200000      20.40900000      11.15000000      -0.04738347       0.23609557      -0.25124043       0.75120938      -0.18700396       0.30092506
H       11.17800000      20.57700000      10.88000000       0.29727460      -0.58444090       0.13772034      -0.75170715       0.18766424      -0.30115406
H        1.76700000      18.85000000      10.79600000      -0.38421605      -0.21347185       0.45401488      -0.18763067       0.23543992      -0.79144372
H        1.93200000      18.64300000      11.49200000       0.11432948      -0.50170015       0.19439860       0.18761622      -0.23535521       0.79140656
H       20.84800000      13.37400000      12.45900000      -0.06376607      -0.69143875       0.04885087      -0.08849353       0.72144392       0.41276446
H       20.92700000      12.73100000      12.09100000       0.45000681       0.14761557       0.06107031       0.08877556      -0.72130737      -0.41293833
H       15.30500000       5.69500000      13.86200000      -0.13283248       0.49923234      -0.03195724       0.90750409      -0.77527841      -0.46265233
H       14.79500000       6.18100000      14.10300000       0.13748729      -0.07987320      -0.08535891      -0.86446740       0.85332385       0.41965129
H       10.11900000      17.29100000      11.32000000       0.19975870      -0.33659194      -0.00020124       0.62525242       0.50064455       0.30809757
H        9.57600000      16.85800000      11.05000000       0.04790949      -0.24252531      -0.27053574      -0.62374869      -0.49252038      -0.31613043
H        0.52700000      17.65700000      18.93800000       0.56265968       0.34799550      -0.19684423       0.52914638       0.29481843       0.57391719
H        0.05400000      17.39300000      18.42600000      -0.06738048      -0.00873319       0.39912545      -0.52991374      -0.29594025      -0.57264856
H        5.87800000       9.37900000      12.06300000      -0.26683093       0.37976327      -0.81095920       0.40144350      -0.18018175       0.73300485
H        5.53000000       9.53300000      11.42300000       0.64010680       0.01718271       0.47283508      -0.40116918       0.17578462      -0.74547241
H        0.27100000      15.25700000      12.38500000      -0.63878577      -0.24917112      -0.23225973      -0.21291459      -0.35013865       0.73190594
H        0.46000000      15.56800000      11.73500000      -0.50742921       0.27985112       0.06249532       0.21275247       0.35027071      -0.73200513
H       21.00100000       0.82200000      14.20500000      -0.04496103       0.09538857      -0.33169697       0.13035579      -0.04343485      -0.81878465
H       20.88400000       0.86100000      14.94000000       0.61188009       0.02193124      -0.03628551      -0.13032194       0.04345177       0.81876303
H       19.56900000      12.80800000      15.03100000      -0.34954034      -0.59628433       0.38555271      -0.10607471      -0.55229001       0.61671361
H       19.66500000      13.30300000      14.48200000      -0.46917095       0.23026751      -0.13352631       0.10784742       0.55588842      -0.61287252
H       22.02200000      12.84300000       7.99700000      -0.65311162      -0.80391246       0.53334917       0.09252105      -0.28098627      -0.79727115
H       21.94100000      13.08900000       8.69500000       0.87375772      -0.01893696      -0.17925412      -0.09251960       0.28098548       0.79727070
H        1.92900000      13.79200000      11.28500000      -0.56771560       0.30953380       0.25206012      -0.18099831      -0.57223205       0.54185909
H        2.09600000      14.32000000      10.78500000       0.14960091       0.53768979      -0.30418677       0.18096543       0.57221543      -0.54191945
H       12.92300000      13.66500000      13.39200000      -0.31199720       0.67572325      -0.03901842       0.35976938      -0.54389015       0.54768224
H       12.61600000      14.14500000      12.91200000       1.19721771       0.00300305       0.49520790      -0.34304983       0.55487248      -0.54911573
H       14.08800000       1.39600000      14.38200000       0.18582498      -0.29980316      -0.13039147       0.58912321      -0.11218319       0.58672253
H       13.56500000       1.49600000      13.86100000       0.64681735       0.08520187       0.16458215      -0.58835878       0.11302841      -0.58641744
H       18.71000000      11.69900000      12.01600000       0.17464611      -0.68423152       0.15961218      -0.09757336       0.81124599       0.26818534
H       18.79400000      10.99700000      11.78200000       0.18255961      -1.03351413       0.72855113       0.09689814      -0.82371876      -0.27682069
H        3.30700000      14.54400000      14.31500000       0.54664384      -0.55944072       0.10095415      -0.04279913      -0.58653206       0.64088900
H        3.35300000      15.05000000      13.77000000      -0.34377333       0.66361510       0.67234945       0.05722833       0.59138217      -0.63046409
H        0.71400000       6.55600000      15.67400000      -0.60718244      -0.32655162      -0.51814560       0.79250393      -0.18713694       0.20517196
H        0.01100000       6.72200000      15.49200000      -0.67636244       0.29187788      -0.24768117      -0.79250329       0.18713373      -0.20517148
H        6.89200000       8.81000000      21.85600000      -0.20260377       0.48461285      -0.44732317      -0.22547183      -0.49654910      -0.63878123
H        7.09300000       9.25100000      22.42200000      -0.11689979       0.21825340       0.13224995       0.22682828       0.49674379       0.63641417
H       12.94900000       0.12900000      12.20000000      -0.46310184       0.04441749       0.97686082       0.19723188       0.06528483       0.82129911
H       12.77600000       0.07200000      11.47800000      -0.70322901       0.41427056      -0.23050813      -0.19697532      -0.06429504      -0.82272114
H       20.02800000       9.06000000      13.48700000       0.47603002       0.14794024       0.00418188      -0.28870206      -0.17600761      -0.78791883
H       20.27700000       9.20900000      14.17300000       0.27667542       0.80228299       0.24709926       0.28345088       0.16662687       0.78299183
H        8.32300000      10.60400000       8.24400000       0.35796162      -0.06109472       0.19509978       0.64581588      -0.72896855      -0.42943150
H        7.86700000      11.10900000       8.54700000       0.15211971       0.00438251       0.35744364      -0.69406149       0.75617301       0.46015137
H        8.22600000       9.72500000      13.97000000       0.52742725       0.97670654      -0.22527796       0.15954191      -0.90749425      -0.46302006
H        8.14700000      10.38200000      14.31400000      -0.24298855       0.70017094       0.59603921      -0.05427658       0.90894240       0.50867287
H        0.36300000      22.07800000      15.78600000      -0.29712135      -0.44210403       0.41732534       0.00896214      -0.37192944      -0.74722029
H        0.35500000      22.41000000      16.45300000      -0.45222772       0.03004872      -0.50572682      -0.00896217       0.37192970       0.74722017
H       17.01700000      13.84800000      10.40800000      -0.30498369      -0.41969967       0.30393672      -0.13179413       0.39763067       0.70805680
H       17.13600000      13.48800000       9.76600000       0.16943753       0.37656188      -0.49155098       0.13099411      -0.39734137      -0.70951943
H       12.80100000      11.31700000      11.99100000      -0.03159141       0.44414304       0.16610103       0.43008379      -0.46308045      -0.59933665
H       12.42700000      11.70500000      12.50500000      -0.63327486       0.04350654      -0.08265856      -0.44612548       0.43479596       0.59863825
H        6.68500000       6.05300000      10.96400000       0.20717877       0.49069076      -0.05212235      -0.52626338      -0.52833027       0.38503043
H        7.15200000       6.52200000      10.62200000      -0.79160367       0.07588392       0.20818051       0.52678902       0.52907712      -0.38586294
O       12.04700000       0.83600000      17.09600000       4.71484009       1.06929561      -1.21601157       2.24371656       0.07236941      -2.35473752
O       11.22100000       0.80800000      17.96000000      -1.45919474       2.18757161      -1.93271469      -2.24465230      -0.07793675       2.34450374
O        1.10400000      21.93600000       8.12400000      -1.49879818       1.04892122       0.90830142      10.58710333      -1.78275569      -6.78925081
O        0.10600000      22.10400000       8.76200000      -1.37072745       0.25305647       0.28391370     -10.59597169       1.78414769       6.73176168
O        9.60700000      11.53200000      12.12700000       0.13013613      -3.82976545       0.83123141      -1.33899611       0.21905023      -3.02158420
O       10.08800000      11.47800000      13.22100000      -0.05987229      -0.59266131       0.85196918       1.31908076      -0.05712068       3.06101512
O       14.70500000      19.91200000       0.00200000      -0.44592562      -0.02181329      -1.75023241      -2.20142762       3.71349639      -4.67657178
O       15.11900000      19.21400000       0.88100000      -1.19136118      -2.44931416      -1.27272712       2.20252967      -3.71248986       4.67535807
O       13.56500000      14.25200000      16.47900000      -0.53531862      -0.39448124      -0.74467279       2.41544230      -1.24750232      -1.77229083
O       12.67400000      14.71100000      17.13100000       0.09940775       1.10199170      -0.08143008      -2.41905655       1.24359924       1.76635035
O       10.65600000      21.57300000      21.04500000       0.33038395       2.11175037      -0.04494666      -1.61306992      -4.52977822      -4.16806279
O       10.95800000      22.42500000      21.82900000       1.19998065       0.83607844       3.14986709       1.59286671       4.53531435       4.17669263
O        9.60000000       8.75500000      11.78100000       2.55237475      -2.33221887      -2.46249168       0.20204383      -2.15223198       2.47218085
O        9.52300000       9.53800000      10.88100000       0.87349926       1.19357003      -2.89318979      -0.21832180       2.14639037      -2.48269887
O       17.96300000      17.46300000       5.45600000       1.72407762       1.18985651       0.23759879       1.91700728      -0.73077142      12.49770735
O       17.78200000      17.53200000       4.27600000      -0.08040676       1.25229628      -0.91240784      -1.91701760       0.73079755     -12.49768113
O        8.92300000       4.74700000      21.86800000      -0.06259178      -0.85153651       0.01603678       1.67143578       6.07503874      -1.14637436
O        8.61100000       3.61300000      22.08200000      -1.16026601      -2.98451628      -1.62218308      -1.67168575      -6.07615871       1.14678093
O       22.10600000      14.21000000       1.17300000      -0.37570024      -2.02444244       0.34162829      -3.94973842      -3.86493006      11.39375872
O       22.47900000      14.57500000       0.09700000      -0.97387986       1.07106303       0.60912103       3.94968583       3.86495071     -11.39381063
O       16.89200000       7.73200000       4.01500000       1.34759487      -1.96550906       1.38859710      12.56400224      -1.16528839       1.11237514
O       15.70600000       7.84200000       3.91000000      -1.57764694      -2.57287509       1.41484751     -12.56398247       1.16530082      -1.11228385
O        5.35000000      14.16400000      21.80000000       1.39211524       1.89899589       0.25928785     -12.21384023       2.36226288       2.38343065
O        6.50300000      13.94100000      21.57500000       2.41024973      -0.18963808      -0.31271114      12.21383193      -2.36225743      -2.38345520
O       12.08500000      16.86600000      15.51400000      -2.56100839       2.81476332      -0.54288625       2.57415684       1.22961516       1.60748019
O       11.14500000      16.41700000      14.92800000      -0.92208543      -0.79730477       0.11720417      -2.58375024      -1.23874956      -1.61082872
O       19.23000000       3.66200000      10.83200000      -0.12293994      -4.93049165      -1.10848360      -7.86418056       9.64465058      -2.38466303
O       19.97200000       2.75200000      11.05700000       2.29098045      -0.54964471      -2.41454547       7.86414902      -9.64472032       2.38470557
O       22.02000000      12.70000000      21.06400000       4.20299697      -0.40739848      -0.58064151      -4.07209500       3.33167309     -11.50790507
O       22.40500000      12.38500000      22.15200000       0.42889240       1.29231398      -0.90036545       4.07203469      -3.33160882      11.50720918
O        5.94200000      14.64300000      13.88600000       0.19911310      -2.13905782      -1.88892876       0.27122981      -0.34384383      -3.27261182
O        5.84300000      14.76600000      15.07100000      -0.25195633       0.65985916      -0.82856026      -0.28151693       0.33235749       3.24394985
O        5.89200000      22.08800000       0.49500000      -0.22179627      -0.80686592       1.43539425       1.94444969      -0.27233236      -6.09090682
O        5.52900000      22.13900000       1.63300000      -0.14963178      -2.04866705      -0.66782811      -1.94211268       0.27332928       6.09081639
O       18.75100000       7.89100000      11.42700000      -0.55647323       3.55959866       0.73969981       2.15848323      -2.36536184      -0.28990065
O       17.95100000       8.77400000      11.53600000      -1.52656335       2.60013197      -0.11551548      -2.14133356       2.39327579       0.29757611
O        7.81500000      16.99400000       1.37800000      -0.81889345      -1.03265337       1.35614233       0.96447784      -0.74190676     -12.61240032
O        7.72400000      17.06400000       2.56800000       3.27144945      -1.33675870       0.97130689      -0.96447809       0.74190973      12.61239823
O       15.66200000       0.27300000       8.85100000      -1.09912733       2.89758760      -0.85882142      12.31739185       2.86750052      -0.51832052
O       14.49800000       0.00200000       8.90000000       2.40069003       1.13258693       1.07315693     -12.31769810      -2.86806683       0.51891480
O       10.28200000      11.50500000      16.19400000      -0.58206824      -0.62336083      -3.69419928      -1.22989450       2.63885888       1.59490138
O       10.73500000      10.57000000      15.60200000       1.58326014      -0.94624228       0.54870308       1.25054123      -2.54328057      -1.64744348
O       16.05700000      13.02000000      14.11000000      -2.36439127      -0.86584629       1.52101566       0.93495351      -0.79876473      -2.93068561
O       15.70500000      13.31900000      15.21400000      -0.24347355      -0.06412712      -0.66404657      -0.93314157       0.78870152       2.92854066
O       15.41700000       3.97900000      19.10400000       0.67426874       2.90619179      -2.00961179      -5.58184162       4.13342842      10.57314440
O       15.94500000       3.58800000      18.10400000      -1.08785084      -3.44885343       0.52402083       5.58275153      -4.13465061     -10.57136371
O       16.07700000       7.50200000      12.78600000       0.52185589       1.27452886      -0.13933973       0.16064312       2.34742873       2.30963562
O       16.01100000       6.64300000      11.95700000      -1.80967571       1.27607424      -0.10996598      -0.21508594      -2.40711306      -2.21426658
O        7.07100000      14.98700000      17.79000000       1.09822673      -1.99253051      -2.33867013       5.60259868      -7.26196143       8.71033141
O        6.54100000      15.67400000      16.96600000       0.93522443       1.85203095      -0.43199540      -5.60224297       7.26316651      -8.70978017
O       15.78000000       4.52300000      15.76500000      -3.69562569      -1.33454914       0.14465044       2.23600525      -0.85856709      -2.18344642
O       14.95100000       4.84400000      16.56500000       1.29340575       0.19367165       1.17866412      -2.24260484       0.87136386       2.15133226
O       13.84200000       9.02900000      14.89900000      -1.14608968       1.19877910      -0.95979944       1.10471726      -2.55113747      -1.70413492
O       13.44500000       9.96900000      15.52300000      -0.22831902      -0.44758667      -2.26256234      -0.99094268       2.57509296       1.67084674
O        7.81900000      10.53600000      16.55400000      -3.25789422       1.27664046       1.33018392      -2.00373377       2.59878064      -0.24594699
O        8.54200000       9.58600000      16.62900000       1.15795273       0.26991434      -2.31594591       1.94969400      -2.59018314       0.17565035
O       15.55900000      20.17200000       5.36100000      -0.54276370       1.47449019       1.57323386       7.40054788       2.28359698     -10.00131027
O       14.85900000      19.95600000       6.30700000       2.80665234       0.23294529       1.97230348      -7.40054709      -2.28360925      10.00135167
O       21.91200000      17.04100000      21.33700000       0.65963189       1.20884979      -2.92685689      -1.10640298       0.72411169      -2.94658194
O       22.32200000      16.77300000      22.42800000      -1.01054615      -3.75229630      -0.48529739       1.10661901      -0.72294647       2.94431179
O       16.48400000       7.70900000      15.57100000       0.35848734       4.67846214      -0.04586402      -3.24706262       0.25201386      -0.09028041
O       17.67600000       7.61900000      15.60200000      -0.69119816      -0.66983105      -0.35837742       3.23773279      -0.23771433       0.08335005
O        5.54900000      12.99400000       7.81500000      -0.64543455       1.96936899      -1.30270238      -1.53485771      -2.72376355      -0.83884919
O        6.11500000      14.00100000       8.12500000       1.71656777      -0.66601191      -0.73501025       1.52962809       2.73750628       0.84424696
O        7.15200000       8.33400000      18.10200000       0.76568276       1.72870694       0.25624927      -0.12876150       0.26769496      -3.20553522
O        7.19700000       8.23300000      19.29300000       1.87227043       1.86553426       2.35830544       0.11710889      -0.27380499       3.21355801
O        3.92600000       7.03800000       8.70800000       1.27594063      -2.56962474      -0.28384406       1.27877991       2.22449238      -1.97857136
O        3.45400000       6.21700000       9.43800000      -0.73997468       1.64358524      -1.56711778      -1.27981583      -2.22589434       1.97926552
O       22.14200000      10.07300000       0.20400000      -0.81366247       0.65823037      -1.83349238       9.77266707       0.43319919      -8.05592551
O       21.22000000      10.03200000       0.96400000       0.62217053       1.96988420      -2.58672486      -9.77216879      -0.43641795       8.05487134
O       12.95100000      16.91700000      13.16600000       0.15481044       1.41541486      -2.23576759      -2.93175428      -0.28279974      -1.40417740
O       14.02800000      17.02100000      13.67600000       2.20726164       0.87163832       0.70918735       2.92608208       0.31806241       1.32416858
O       10.48500000      12.92800000       7.45100000      -0.08644839      -1.18516175       1.54108492       2.57959321      -0.69899737       1.90455467
O        9.54500000      13.18200000       6.75800000       0.36271276       0.20830797      -3.40727369      -2.57940523       0.69545917      -1.90012361
O        6.45900000       9.08200000       9.01800000      -0.51644654       1.56825421       1.25562221       2.76503715       0.70084361       1.63822745
O        5.45500000       8.83000000       8.42000000       0.39094641      -1.60427122       2.35005985      -2.74652414      -0.68817750      -1.63811243
O       17.36100000      16.21000000       8.21400000       2.21738731      -0.60754993      -0.56666766       1.01486344      -2.19427193      -2.12632659
O       16.98400000      17.02500000       9.00400000      -1.00110650       2.52625985       1.78660113      -1.01507830       2.19433865       2.12740984
O        5.59800000       4.93400000       0.03300000      -0.69515938       1.84950852       2.34711974      -1.11281392      -1.48822820      -2.61435875
O        6.01300000       5.48900000       1.00800000       2.04559277      -1.14454418      -0.77757334       1.11277619       1.48814889       2.61437988
O       12.61800000       5.42100000       4.71800000      -1.37228028       0.26623584      -2.49199140      -0.92222417       2.18246869      -2.14439387
O       12.96300000       4.60400000       5.52100000      -0.43524224       1.26915024      -0.92275748       0.92104357      -2.18213647       2.14479960
O       10.98700000       5.15800000       9.95300000      -1.59678810      -0.65510042       3.65586978      -0.86805409      -1.93056651       2.56458206
O       11.29700000       5.85100000       9.03000000      -0.27743831       0.24432947      -0.28026850       0.85222136       1.92292746      -2.57969317
O        6.54300000      12.53000000       9.72300000      -0.15551418      -1.47758071       1.30439779      -2.74404622      -0.76380154      -1.63741005
O        7.54100000      12.80400000      10.32200000       0.49880350      -2.03665113      -0.95522306       2.77563554       0.77196149       1.66923321
O        7.61700000      11.90100000       6.02100000      -2.43247774       1.54543330      -1.85607856       2.62750139      -1.33855308       1.17183699
O        6.62500000      12.40500000       5.58000000      -1.49257758       3.74968191       0.06033466      -2.62130585       1.33062859      -1.16695143
O        8.43500000       0.61000000       8.68400000       0.17045050       0.90881673      -0.12645078      -0.33833319       0.08457782      12.64529462
O        8.46700000       0.60200000       7.48800000      -0.32019408       2.84209641      -0.05630948       0.33833874      -0.08458634     -12.64531729
O       21.99200000      14.65900000      15.80400000       0.32595950      -1.59712842      -0.82921591      -0.01402663       2.80909252      -1.66896179
O       21.99700000      13.63100000      16.41400000      -3.88859688      -1.56543929       3.62597416       0.01252244      -2.81046934       1.66509464
O       10.83700000      16.03300000       9.06500000       0.03499752       0.78047737      -1.57818186      -3.21742130       0.38748910       0.37568123
O       12.01700000      15.89000000       8.93400000      -1.03415229      -1.80755667       1.90265006       3.21135116      -0.38902152      -0.34513261
O       12.81200000      21.82300000       1.41100000       1.17601344      -1.86854086      -1.70295018      -0.97999828      -0.51097396      -6.27523510
O       12.99600000      21.91900000       2.58900000       1.83771728       0.85054349      -0.20208787       0.98007210       0.51160660       6.27531730
O        9.04000000       0.02600000      13.72600000       0.61573949      -0.93328724       0.08813480       0.49510099      -3.08121773       1.03878511
O        8.87400000       1.15000000      13.35200000       1.28937065      -1.66796088       0.08992992      -0.43589428       3.06646628      -1.01585355
O       11.92200000       7.68100000      14.91700000       1.25037714      -2.71538722      -0.53649099      -1.59456775       1.69038503      -2.29467969
O       12.50600000       7.06000000      15.75500000      -2.15737801      -0.56275495       0.24798327       1.60204352      -1.70624393       2.28778656
200
Lattice="22.43773069742029 0.0 0.0 0.0 22.43773069742029 0.0 0.0 0.0 22.43773069742029" Properties=species:S:1:pos:R:3:momenta:R:3:forces:R:3 connectivity="_JSON [[0, 1, null], [2, 3, null], [4, 5, null], [6, 7, null], [8, 9, null], [10, 11, null], [12, 13, null], [14, 15, null], [16, 17, null], [18, 19, null], [20, 21, null], [22, 23, null], [24, 25, null], [26, 27, null], [28, 29, null], [30, 31, null], [32, 33, null], [34, 35, null], [36, 37, null], [38, 39, null], [40, 41, null], [42, 43, null], [44, 45, null], [46, 47, null], [48, 49, null], [50, 51, null], [52, 53, null], [54, 55, null], [56, 57, null], [58, 59, null], [60, 61, null], [62, 63, null], [64, 65, null], [66, 67, null], [68, 69, null], [70, 71, null], [72, 73, null], [74, 75, null], [76, 77, null], [78, 79, null], [80, 81, null], [82, 83, null], [84, 85, null], [86, 87, null], [88, 89, null], [90, 91, null], [92, 93, null], [94, 95, null], [96, 97, null], [98, 99, null], [100, 101, null], [102, 103, null], [104, 105, null], [106, 107, null], [108, 109, null], [110, 111, null], [112, 113, null], [114, 115, null], [116, 117, null], [118, 119, null], [120, 121, null], [122, 123, null], [124, 125, null], [126, 127, null], [128, 129, null], [130, 131, null], [132, 133, null], [134, 135, null], [136, 137, null], [138, 139, null], [140, 141, null], [142, 143, null], [144, 145, null], [146, 147, null], [148, 149, null], [150, 151, null], [152, 153, null], [154, 155, null], [156, 157, null], [158, 159, null], [160, 161, null], [162, 163, null], [164, 165, null], [166, 167, null], [168, 169, null], [170, 171, null], [172, 173, null], [174, 175, null], [176, 177, null], [178, 179, null], [180, 181, null], [182, 183, null], [184, 185, null], [186, 187, null], [188, 189, null], [190, 191, null], [192, 193, null], [194, 195, null], [196, 197, null], [198, 199, null]]" energy=-85.41070366717727 pbc="T T T"
H        0.06075568       6.21137560      13.30609256      -0.02583084       0.55391888       0.14507783      -0.07656945       0.17141288       0.60908873
H        0.13184566       6.03226680      12.57565844      -0.35916505      -0.59080484      -0.25622941       0.03412349      -0.12314091      -0.55860265
H       16.32675679       8.35744170      21.81682810      -0.04278590      -0.31909871       0.69280150       0.05204693      -0.05897030      -0.08627149
H       16.67802178       7.96237359      21.24103678      -0.32799436       0.05397264      -0.20634760      -0.05091839       0.05849750       0.08665586
H        5.42286992      14.98628610      10.43738513       0.41628199      -0.05388179      -0.04557942       0.90524293      -1.40684022       1.45599113
H        5.76265419      14.44899817      11.02022477       0.56077975       0.16061299       0.39102446      -0.82664836       1.33948805      -1.53283466
H       17.14256006      22.42775923      13.67096036      -0.41640880       0.16626441       0.07712172       0.63799872       0.20684883      -1.20347228
H       16.83219980      22.33701020      14.32070203      -0.05533133      -0.13904832       0.59902754      -0.54570148      -0.09933974       1.19783351
H        5.51190276      11.40195417      13.09943087      -0.20203127      -0.10127833      -0.07837819      -0.87253986       2.06064286       0.83781484
H        5.17740437      12.14968240      13.38976537      -0.19602519       0.12838754       0.09264847       0.97740268      -2.07103146      -0.70409649
H        9.81961339       5.75684016       6.93404444      -0.03675800       0.50736229       0.09962544       0.21600075       0.38071093      -0.55794384
H        9.59834704       5.36442601       7.53330039       0.17780741      -0.64506789       0.14291469      -0.21061758      -0.29729775       0.57239144
H        3.24088483      11.40034134      13.03601552       0.44626699       0.15082520       0.24544852       0.13722783      -0.50801258       0.09223687
H        3.05677799      12.12520290      12.91011245      -0.20903179       0.32306797       0.34165590      -0.08070670       0.43514376      -0.10653899
H        7.45181576       3.69849863      14.66027313      -0.01948349      -0.49077485      -0.06671243       0.70597466       0.23303661      -1.56298400
H        7.79482183       3.81271938      13.89847420       0.46533493       0.22659200      -0.09405899      -0.71907362      -0.13913787       1.53099597
H        5.54578124      10.80069012      16.20000455      -0.11072134      -0.35044787       0.34105096       0.12806846      -0.31289949       0.03038263
H        5.22489966      11.46604318      16.00921648       0.38373264       0.28359967       0.33076868      -0.04936373       0.35362125      -0.04445137
H       10.70414763      13.17823083      14.72413410      -0.18267173       0.39834034      -0.01918375      -2.35989113       0.57265305      -1.74323737
H       11.24335586      13.06761432      15.09251343       0.24837196      -0.49068121       0.09717958       2.40603135      -0.54313512       1.64037446
H        8.80606772       0.14247562       0.49891153       0.63895842       0.19188612       0.22079187       1.40323914      -0.79408577       1.79090715
H        8.79239598       0.93044298       0.64003878      -0.10283473       0.38887091       0.59544289      -1.96185998      -0.47208412      -0.39375397
H       20.37681842       3.41363726       3.03149903      -0.67386907       0.36511658      -0.10306669      -0.32051726       3.92075716       1.83092087
H       20.41942234       2.85333631       2.78918409      -0.14058073      -0.13036798      -0.07880339       0.26011969      -3.94344547      -1.69568545
H       10.00779788       4.84844070      12.28921859      -0.36379130      -0.31354999      -0.51099780       0.47887020       0.13010803      -0.03959596
H        9.41482121       4.39277233      12.42310818      -0.34861887      -0.52052090       0.44483405      -0.32391857      -0.25738764       0.06659195
H       13.89757508      18.27875280      11.61486538      -0.06657485       0.06023106      -0.38573652       0.42097041       0.96641769      -1.03610337
H       13.30947883      18.53549450      11.31197302      -0.33698845       0.69668053       0.22256086      -0.14981217       1.35712609       0.26568072
H       14.45493298      22.37725610      20.64923717       0.50082518       0.19212879      -0.14983666       0.82578654       0.58988600       1.82885821
H       14.44287935      22.35804698      21.48659744       0.61659833      -0.46851618       0.10010060      -0.75242199      -0.82222824      -1.32740298
H       22.09275090       7.29742359       0.45519700       0.17055882       0.54916802      -0.19763304      -0.21855679       2.52390877       3.56739805
H       22.39013666       7.05808396      -0.03234973      -0.09636408      -0.20677481      -0.46287130       0.46055687      -2.73293991      -3.28239906
H       10.93621050      22.23592577      15.11326250       0.09574465       0.02431905       0.41560871      -0.27565029      -0.18233246       1.17803804
H       11.08056545      22.34024274      14.40437590      -0.09932141      -0.37555227       0.01690723       0.22857823       0.08935663      -1.20660402
H       17.99620585       5.61030483      22.43701056       0.39759916      -0.15848179      -0.19382396      -2.36499375       2.23341661       0.11160605
H       17.34397420       6.25445189      22.65144119      -0.38747835      -0.22923598       0.78413108       1.69453528      -2.49249533      -0.95486610
H        8.67862221      13.44637977      12.97375525      -0.30795401      -0.72247184       0.28803192      -0.71555648       1.55552308      -0.66962279
H        8.32487123      14.14927989      12.64749499      -0.25534843      -0.33202824       0.71284341       0.80149933      -1.67067039       0.74925699
H       15.69560136      10.37173018      14.77974484       0.21016380       0.55660546      -0.63965486       1.78960222       0.84404087       0.67012856
H       16.21625984      10.20144442      15.34427523       0.22283515      -0.23079989      -1.08605162      -1.51861297      -0.92521653      -1.58239045
H       10.38103069      14.27288462      10.71201627       0.23861216       0.42232960       0.16623819      -0.22414650      -0.97423407       1.47516180
H        9.75372431      13.72125211      10.68973853      -0.10749973       0.66064591      -1.06764258       1.05794681       1.47180434      -0.82586700
H       11.77162276       8.49591401       5.29064147      -0.00398120      -0.25826809       0.10711065      -2.05560641      -2.70844229       1.72601136
H       11.05527228       8.04240469       5.21416166      -0.26700163       0.13796885      -0.31187650       2.43289907       2.15587349      -1.54164846
H       22.27275527      -0.06300792       2.84041772      -0.02696123      -0.50530527      -0.08223408      -0.25355311      -0.67832568      -1.18937729
H       22.35460730      -0.00079567       3.54140534       0.20837321      -0.19877760      -0.02151473       0.09608025       0.73363277       1.21082617
H        0.15208710      22.29427942       6.42588678       0.49458685       0.47031988       0.83233704      -0.72612471       0.91294598       0.62538401
H        0.54062482      22.21873631       5.80875685       0.38757664      -0.86449655       0.30917209       0.52979341      -0.54306311       0.17657058
H       11.85673140      20.46965950      11.10254223       0.12668228       0.17738599      -0.24787698       1.48202132       0.08981698       0.18960846
H       11.20355515      20.43573266      10.91601895      -0.10652537      -0.58507923       0.14732249      -2.29159198      -0.80576162      -0.06892434
H        1.67324265      18.77839315      10.87252382      -0.39998400      -0.36194848       0.20827676      -0.31458432      -0.83841691      -0.50407593
H        1.96611886      18.52879740      11.53888568       0.16134401      -0.43672082       0.18188686      -0.07886682      -0.10975962       0.04180082
H       20.80285329      13.23750678      12.47034343      -0.32979497      -0.32194248       0.07842370      -0.61780685       1.55743152       0.83824078
H       21.04437457      12.69787545      12.07487792       0.57208105      -0.46269347      -0.24184231       0.67655652      -1.54748942      -0.78336990
H       15.30157627       5.83599891      13.83167188       0.14985545       0.50849280      -0.21014658       2.28394262      -0.65767848      -0.18633270
H       14.77618157       6.17776013      14.09434007      -0.42635278       0.11038413      -0.00153416      -2.08012422       1.17901142       0.50782994
H       10.18093196      17.21332772      11.31433017       0.16771505      -0.40939026      -0.01112749      -0.50885137      -0.25028267      -0.13144233
H        9.57231120      16.79991315      10.98319172      -0.00599363      -0.18211438      -0.23879108       0.52546101       0.26610894      -0.02033209
H        0.64920223      17.76704745      18.91796203       0.37408314       0.51720621       0.03930405      -1.57998742       0.50884591       0.05420609
H        0.02453463      17.37630918      18.51415079       0.02174416      -0.04001053       0.35278372       2.00017413       1.06380883       0.76335136
H        5.86552677       9.47416594      11.95707854       0.25562690       0.47444389       0.00894022       1.95760692       0.38093192       4.33567866
H        5.66379138       9.54631590      11.40217736       0.40224706       0.08375577      -0.84058451      -0.61140355       0.17641035      -5.81126568
H        0.13301003      15.19098444      12.33264700      -0.53865200      -0.34982445      -0.25599022      -0.15577384      -0.59615417      -0.36624717
H        0.34057182      15.66273052      11.75652353      -0.51359180       0.41861173       0.17362509      -0.45878716      -0.24592219       1.09953649
H       20.96629532       0.88374972      14.15085627      -0.23685783       0.33723834      -0.00621227      -1.10236013       0.65072414       0.73376576
H       21.04005367       0.82947565      14.92494079       0.72097731      -0.25066763      -0.21107555       0.36352310      -0.22521705      -0.68693952
H       19.51395184      12.72477724      15.11638713      -0.14945434       0.10718439       0.16653735       1.00142316       2.48438115      -2.30825463
H       19.53711753      13.33787806      14.47255373      -0.60743458      -0.07027815       0.21776696       0.04503925      -2.78563872       2.96151494
H       21.88021713      12.61555580       8.08670260      -0.54949117      -0.91273656       0.28617175       0.75816644       0.56273930       0.07183829
H       22.14476947      13.08892342       8.67875278       0.81532068       0.01882085       0.03479497      -0.61226691      -0.22661121      -0.14644443
H        1.82927352      13.89256333      11.31255768      -0.27067528       0.64680482      -0.14777875       0.49837957       1.31926927      -1.41565235
H        2.12962730      14.44394658      10.74346581       0.07610295       0.31248586      -0.04629777      -0.62745528      -1.14110664       1.41422377
H       12.87818594      13.76941631      13.43228816      -0.06128465       0.10201567       0.53672949       0.30831108      -2.93860023       2.83384995
H       12.87488435      14.19513393      12.97466445       0.93929237       0.54030651      -0.11221871      -0.16597556       2.69827310      -2.64134735
H       14.15222156       1.26702974      14.39581109       0.33310160      -0.69530485       0.21588321       0.29810690      -0.88816986       0.83815608
H       13.67840178       1.54238347      13.87889469       0.34542027       0.28219644      -0.08064933      -0.64131301       0.46385575      -1.14495432
H       18.76719976      11.54958230      12.05030700       0.37418386      -0.69308569       0.06080947       0.22825099      -1.18247244      -0.09285728
H       18.82650012      10.73137503      11.92729476       0.03583124      -1.05984589       0.45011073      -0.36166703       1.27814492       0.06269856
H        3.42967648      14.42179263      14.34312845       0.40601863      -0.30741629       0.06531489      -0.77978675       2.38661776      -0.97339342
H        3.27943006      15.18291141      13.91005238      -0.22382995       0.25253354       0.49346245       0.19094331      -2.86599230       0.41383954
H        0.57604348       6.47226990      15.53373032      -0.58816844      -0.32584825      -0.63206600      -0.64370960      -0.20241549      -0.10227647
H       -0.16770356       6.80266466      15.44053694      -0.74085302       0.34338362      -0.15853095       0.35075282      -0.15867579       0.34118880
H        6.80662969       8.93779017      21.74062370      -0.40173012       0.53963839      -0.35606142       0.14289917       0.78122178       1.84951657
H        7.06704643       9.29604635      22.45328621      -0.13428436       0.09979229       0.09478879      -0.21664922      -1.42197149      -1.26563161
H       12.80730896       0.10712974      12.38701096      -0.67722775      -0.22598137       0.36659840      -0.37005764      -0.26375004      -3.89402774
H       12.60138670       0.16550975      11.49803658      -0.63391346       0.30273618       0.58148392       1.00307388      -0.46667274       4.00783515
H       20.14227869       9.06443148      13.52682243       0.43798499      -0.02374714       0.37434633       0.04020468      -0.01436407       2.46209438
H       20.35808681       9.42315772      14.26315898       0.36694767       0.79549039       0.36743813      -0.67868650      -0.70906307      -0.34940249
H        8.40574191      10.58659810       8.27584284       0.23966327      -0.04169297       0.08987391      -0.58905439       0.81185211       0.40770177
H        7.92289066      11.11394118       8.60887059       0.36062945       0.03942713       0.09549831       0.78469718      -0.08285865      -0.94672437
H        8.35243355       9.95932810      13.92555080       0.52409576       1.08090381      -0.13030886       0.12548047       1.02549758       1.22489226
H        8.09372093      10.53735393      14.43342401      -0.16335996       0.50994525       0.32568482       1.14858467      -1.69379053      -0.88212017
H        0.28427032      21.92265495      15.84412742      -0.34307937      -0.86693416       0.18444618       0.01804609      -1.40960834      -0.09518364
H        0.22150422      22.44697767      16.37273273      -0.68070713       0.28495242      -0.11368536      -0.91794456       0.60215352       1.10007939
H       16.94774444      13.74525488      10.48848606      -0.14195731      -0.44947940       0.14886464       0.99835892      -0.57242567      -2.32591991
H       17.15991542      13.59032252       9.63829402      -0.03228879       0.51320567      -0.41589309      -0.90834726       0.91967404       2.08454738
H       12.82118174      11.41196175      12.01067348       0.22038669       0.33887708      -0.00702320      -0.05957179       0.20760944       0.56142031
H       12.24461009      11.71697425      12.50117383      -0.85296330       0.01470751      -0.00646165      -0.66549064      -0.31322439      -0.52371235
H        6.68231493       6.13497763      10.99904247      -0.32280490       0.00554342       0.36294670      -2.45138031      -3.01838166       1.76831826
H        7.00356615       6.55382085      10.64126770      -0.34473852       0.39127774      -0.14309252       2.06366629       3.09991512      -1.96485895
O       12.11845527       0.85017903      17.07841947       4.67450914       0.94822751      -1.02674653      -0.82206471       0.03982722       2.49333979
O       11.19094406       0.84116985      17.93188889      -2.05357884       1.91995699      -1.72714929       0.72114578       0.09506338      -2.97597462
O        1.09819426      21.94613250       8.12471195       0.60431578       0.49140677      -0.74616993       9.15525539      -2.52879040      -5.12072375
O        0.06847649      22.11015458       8.78433549      -3.71577522       0.75729000       2.26403863      -8.90348586       3.12767461       4.77003323
O        9.60626755      11.47105234      12.12907997      -0.24049107      -3.60000012      -0.33878972      -1.18393549       0.39094781      -3.12118199
O       10.08455093      11.47454698      13.23779845      -0.41840954       0.03352660       1.37284725       1.81776563       0.45449464       1.83405768
O       14.69767880      19.92614859      -0.02742504      -0.18167737       1.73794884      -2.17734933      -2.04100644       2.41580411      -3.87877568
O       15.10465212      19.17032853       0.87043102      -0.58832256      -2.97783234      -0.34717896       2.77436206      -2.42089625       3.12030403
O       13.56106684      14.24616700      16.46325553       0.09477795      -0.52152201      -1.41053992      -0.86372072      -1.91864855      -2.04151971
O       12.67173712      14.73089025      17.12688572      -0.13780625       1.39027584      -0.16425628      -0.58223196       0.52310150       2.22627605
O       10.65560319      21.59517242      21.03705283      -0.26842882       1.06130411      -0.69633862      -1.14200781      -1.17984328      -1.53917649
O       10.97833307      22.44040547      21.88631046       1.37098058       1.33385679       4.30516053       1.72333311       1.62858573       1.41327902
O        9.63767236       8.71477261      11.74790437       2.18184564      -2.72996880      -2.02479782       0.19282142       1.20999869       1.28544912
O        9.53709706       9.55928599      10.83497635       0.98370941       1.44159755      -3.45058709      -1.23505746      -1.13292692      -1.05979501
O       17.99158490      17.47399940       5.48204373       2.32708403       0.41825391       3.09451641       1.83153385      -0.67404987      10.75640647
O       17.77881844      17.55294971       4.23752069      -0.49777592       1.21570733      -3.87389459      -1.83886669       0.68162838     -10.75538885
O        8.92910147       4.74618024      21.86920457       0.78170959       0.46255600       0.40483765       0.55782127       2.14656576       0.21008660
O        8.59250403       3.55132955      22.05645903      -1.41218609      -4.55364193      -1.64032905      -0.58054553      -2.42637079      -0.45587813
O       22.09510928      14.17067824       1.20028694      -1.22174343      -2.83123849       2.95099973      -4.20753908      -4.50139435      10.12240314
O       22.46870344      14.59604703       0.08161546      -0.36785197       2.05654870      -2.50073316       4.04161399       4.01902457      -9.42535334
O       16.93113880       7.70191771       4.03366510       4.03925298      -1.94910786       0.94108626      11.56627801      -1.47464265       0.83223906
O       15.65653636       7.80979074       3.92998814      -4.96859379      -1.54231392       1.42741482     -10.92014209       1.04324219      -1.60762949
O        5.34490276      14.19457266      21.81021216      -1.67216257       2.14232908       1.11307264     -10.55233066       3.21372548       1.44906635
O        6.55913871      13.93591374      21.56809247       4.82918863      -0.68559481      -0.32343605      10.34127946      -3.07373971      -1.51111623
O       12.05386167      16.90394506      15.50994160      -1.59899579       2.56284106      -0.14957506       0.86664910       1.00795399       1.14469200
O       11.12375859      16.40167717      14.92868190      -1.72587287      -1.44438071       0.05350654      -0.92705439      -1.14644627      -1.31661890
O       19.21306797       3.60795991      10.81342691      -2.37866708      -2.17553498      -1.79883044      -8.23038268       8.42671314      -2.14330855
O       20.01610244       2.73000916      11.02859534       3.81424828      -2.45139500      -1.35285552       7.95502965      -8.07974362       1.82579117
O       22.07303283      12.70338607      21.03134263       2.81147313       0.72886523      -3.63399603      -3.22882756       3.02975524     -11.07449446
O       22.42395647      12.39821164      22.16257052       2.10316892       0.69260180       2.28397848       3.76810647      -3.00500550      11.16816674
O        5.94273760      14.61065418      13.85347007      -0.28152909      -2.09416272      -2.00622338      -0.05064938      -0.30173052      -1.50142071
O        5.83713489      14.78054557      15.05707246      -0.51333856       0.96112524      -0.94422375      -0.52347791       0.01720834       1.65735502
O        5.88964076      22.07299221       0.50614439       0.26373467      -1.34041748       0.45598891       1.83894084       0.06466667      -6.67118635
O        5.52681852      22.11438203       1.63542701      -0.08054004      -1.20237241       1.17344225      -1.76871838       0.68544446       7.17786976
O       18.74609713       7.93594759      11.44067798       0.16346549       2.57426696       0.68803927       1.83842736      -1.44933990      -1.18688409
O       17.92450111       8.81413975      11.53657917      -1.74116600       2.55785130       0.37386060      -2.23441641       2.03819956       1.58628707
O        7.81136936      16.96995658       1.37101140      -0.02587310      -2.31824549      -2.46308085       1.36069277      -4.86110626     -13.16660591
O        7.77114454      17.04893082       2.59951370       2.74028629      -0.71370137       3.40627326       0.30114739       3.57051489      11.74036454
O       15.66185177       0.32333646       8.83102684       0.98371426       3.25375620      -1.64438918       2.34644244       0.28022759      -2.25929826
O       14.51319093       0.01229931       8.92527862      -0.33903722       0.45454465       2.11133269      -3.95875122      -1.72397314       2.74741524
O       10.27328690      11.50682887      16.13968507      -0.72006924       0.58899477      -3.45858597      -1.19710221       3.28654598       0.48664040
O       10.75999018      10.55477450      15.60686642       1.46389359      -1.29178346       0.31436008       2.03182690      -3.31828693      -0.59987489
O       16.02231756      13.00143750      14.12853733      -2.17552646      -1.24288117       0.86011394       0.67087164      -1.81007226      -4.84666133
O       15.69858558      13.31533129      15.20997972      -0.51221118      -0.22619240       0.55816240      -1.53290581       2.44170563       5.38059239
O       15.41372585       4.03671748      19.09657121      -0.99811629       4.46853805       1.02714575      -5.12560015       5.75084444       9.35218995
O       15.93633733       3.52338638      18.09624103      -0.04511810      -4.73305381      -1.27059765       4.21775412      -5.40469378      -9.04253894
O       16.08396905       7.53146925      12.79158502       0.01399447       2.75555596       1.04097223      -0.00443170       1.84310659       1.59704186
O       15.98177965       6.66378377      11.95328748      -2.02591866       1.31688843      -0.56103135      -0.35648640      -1.77766182      -1.44690331
O        7.09403160      14.93657416      17.77468147       1.67682008      -4.46527999       0.03994759       3.41430985      -7.68570861       8.33710460
O        6.54844693      15.71465917      16.93930678      -0.22721206       3.35785157      -3.12993717      -3.20751978       6.03879415      -8.42647085
O       15.72747637       4.49948370      15.76719840      -3.36266511      -1.49539551       0.11772648       1.23294926      -0.36846998      -0.29643266
O       14.96135597       4.85032222      16.58476736       0.36846020       0.18946385       1.72354400      -1.14313473      -0.38738014       0.10569522
O       13.82775180       9.03936499      14.87810957      -0.71714919      -0.11383242      -1.87203584       1.78545053      -4.27857141      -2.46785728
O       13.43813478       9.96727057      15.49320878      -0.83020009       0.13843699      -1.97784701      -2.83344733       4.13121565       2.58903165
O        7.76948480      10.55895044      16.56809901      -3.32936087       1.61898938       0.40175513       0.25036051      -1.00055799      -1.93469599
O        8.56298007       9.58910979      16.59947482       1.61549290       0.03514147      -1.88378987      -0.43494950       0.59187725       1.23602025
O       15.56758538      20.19920602       5.36813861       1.51055907       1.98332142      -0.96373952       7.33632117       2.39739084     -11.28874230
O       14.88863338      19.96133227       6.35398652       0.85136546       0.42924876       4.43216350      -7.70721868      -2.14388160       9.82375286
O       21.91967278      17.06043795      21.28728777       0.35388136       1.41979786      -3.02185994      -1.96370667      -0.06151639       5.62137820
O       22.30829887      16.71089605      22.41888506      -0.53709543      -4.02491465      -0.63170319       2.46412303      -0.76090902      -2.90079004
O       16.48770275       7.78070468      15.57240546       0.28573849       4.73714469       0.34209848      -1.53127620       0.87155070       1.14061872
O       17.66754706       7.61186759      15.59886250      -0.20898951       0.21778412      -0.14841631       0.73265460      -0.49574423      -0.07507845
O        5.54156024      13.02652266       7.79103147      -0.43005809       1.97583552      -1.56017852      -3.39341498      -3.26004620      -0.71301587
O        6.14931119      13.99525468       8.12200594       3.05579043      -0.24033429       0.34162464       3.78108672       3.38571586       0.89922180
O        7.15828806       8.36092026      18.10075563       0.16484200       1.81031231      -0.33675707      -0.57432711       0.34340055      -0.46358532
O        7.22411570       8.25944697      19.33398519       1.47052213       1.55622633       3.31705587      -0.06451535       0.27455647       2.24593144
O        3.94801209       7.00813970       8.70064285       1.59109146      -1.23829114      -1.46201565       1.17659444       4.84046770      -6.53927655
O        3.44633278       6.23944503       9.42044804      -0.60009315       1.26209900      -0.90878385      -0.03693458      -4.47701951       6.61890489
O       22.15190493      10.08418185       0.16291180       1.72535246       1.00929001      -3.80813979       9.15233557       0.31820797      -9.52938857
O       21.20642893      10.05521919       0.94084068      -1.98229500       1.58934729      -0.64197509      -8.85676164      -0.64954161       9.63920091
O       12.94650027      16.94007306      13.13361418      -0.70450684       1.72235627      -2.29533289       0.39341807       0.43849168       0.31432025
O       14.06859708      17.03081282      13.69067824       2.87252865       0.40767857       0.79345137      -0.27050802      -0.76832157      -0.29000210
O       10.48404738      12.90876825       7.47383497      -0.08678922      -1.20593371       1.70962672       0.39642510       0.72164535       1.09599462
O        9.55138343      13.18635241       6.70419768       0.28606075       0.01543203      -3.66482106      -0.48311707      -0.98247202      -1.13636639
O        6.45377935       9.10652120       9.03846770       0.24913664       1.43595428       1.50232288       3.91274280       0.51128571       0.61677202
O        5.45412034       8.80168592       8.44890023      -0.27089007      -1.98222566       1.75408704      -1.39083005      -1.97647878      -1.13639746
O       17.39366327      16.19623684       8.20002273       2.15489327      -0.86997729      -0.63986160      -2.18740306       2.41619400       1.23017094
O       16.97351222      17.07031849       9.03124334      -0.25622564       2.99887652       1.80813933       2.17987001      -2.01521069      -1.61789658
O        5.58624715       4.95677911       0.06363237      -1.23552796       1.36683726       1.61856269      -1.73886815      -1.31925616      -2.64755964
O        6.05010712       5.47384666       1.00183391       2.95845845      -0.90574213       0.01275683       2.53632222       0.79741322       3.06821349
O       12.59198767       5.42907398       4.67213791      -1.82480699       1.00487475      -3.24103076      -0.42188541       0.97428569      -0.97898627
O       12.95813340       4.61763125       5.50528899      -0.38974875       0.70554446      -0.97449456       0.46697826      -0.99555797       1.02299762
O       10.96414827       5.14627578      10.01105145      -1.24040599      -0.79996016       3.99211892       0.14751704       0.85071693      -0.59203072
O       11.29506883       5.85827385       9.01904155      -0.09746228       0.60199613      -0.87015093      -0.30240606       0.28089325       0.31642346
O        6.53431869      12.50544981       9.73704033      -0.53038338      -1.98310579       0.82794601      -1.43439592      -0.70613715      -1.60402099
O        7.54870609      12.77776819      10.31197020       0.62035179      -1.47988688      -0.54570315       1.73735934       0.83145447       1.20396766
O        7.58623396      11.92503937       6.00033151      -1.60625450       1.78174906      -1.01420464       1.28615066      -1.14929739       1.44755812
O        6.60092738      12.46327040       5.58144429      -1.59043204       3.70566886       0.22311130      -1.58420292       1.02906935      -0.87408713
O        8.43512841       0.62328489       8.70498370      -0.40549286       0.73379112       3.07516354      -0.31487033      -0.31824415      11.51339347
O        8.46315175       0.64641120       7.46548454       0.18354988       2.90720708      -2.96067528       0.23783374      -0.12678598     -11.50905769
O       22.00220619      14.64058510      15.78809523       0.74786269      -0.90999206      -0.77304257      -0.19744218       0.05646290       2.08551874
O       21.93277996      13.60301845      16.46775150      -4.10028631      -1.81146399       3.01842393      -0.07594797      -0.08943550      -1.75936642
O       10.82431368      16.04725922       9.04415943      -1.32995064       1.10881143      -0.91255436      -2.51567048       1.11918899       0.50559261
O       12.01159041      15.85786145       8.96284287       0.15152272      -2.37351258       1.97446043       2.95772730      -0.15487059      -1.60288359
O       12.83445873      21.79273521       1.37278318       1.46497469      -2.09828434      -3.08106074      -0.23189065      -1.45799200      -2.33069582
O       13.02947153      21.93315591       2.59883232       1.78384020       0.91482928       0.94643947      -0.46750231       0.96394263       2.04551867
O        9.05617014       0.00269775      13.73057807       1.19891116      -1.80806658       0.28373303       1.21978492      -2.57056403       0.56605606
O        8.89464810       1.12737202      13.35392241       1.39104103      -1.25390555      -0.14662440      -0.72477138       2.75255088       0.25927012
O       11.93810848       7.64009243      14.89989431       0.74701613      -2.41477837      -1.88023982      -2.23355554       2.46673235      -3.51691205
O       12.46917565       7.04944181      15.75897330      -2.25632721      -0.86618095       0.53833943       2.16957122      -2.42484795       3.46593791
200
Lattice="22.43773069742029 0.0 0.0 0.0 22.43773069742029 0.0 0.0 0.0 22.43773069742029" Properties=species:S:1:pos:R:3:momenta:R:3:forces:R:3 connectivity="_JSON [[0, 1, null], [2, 3, null], [4, 5, null], [6, 7, null], [8, 9, null], [10, 11, null], [12, 13, null], [14, 15, null], [16, 17, null], [18, 19, null], [20, 21, null], [22, 23, null], [24, 25, null], [26, 27, null], [28, 29, null], [30, 31, null], [32, 33, null], [34, 35, null], [36, 37, null], [38, 39, null], [40, 41, null], [42, 43, null], [44, 45, null], [46, 47, null], [48, 49, null], [50, 51, null], [52, 53, null], [54, 55, null], [56, 57, null], [58, 59, null], [60, 61, null], [62, 63, null], [64, 65, null], [66, 67, null], [68, 69, null], [70, 71, null], [72, 73, null], [74, 75, null], [76, 77, null], [78, 79, null], [80, 81, null], [82, 83, null], [84, 85, null], [86, 87, null], [88, 89, null], [90, 91, null], [92, 93, null], [94, 95, null], [96, 97, null], [98, 99, null], [100, 101, null], [102, 103, null], [104, 105, null], [106, 107, null], [108, 109, null], [110, 111, null], [112, 113, null], [114, 115, null], [116, 117, null], [118, 119, null], [120, 121, null], [122, 123, null], [124, 125, null], [126, 127, null], [128, 129, null], [130, 131, null], [132, 133, null], [134, 135, null], [136, 137, null], [138, 139, null], [140, 141, null], [142, 143, null], [144, 145, null], [146, 147, null], [148, 149, null], [150, 151, null], [152, 153, null], [154, 155, null], [156, 157, null], [158, 159, null], [160, 161, null], [162, 163, null], [164, 165, null], [166, 167, null], [168, 169, null], [170, 171, null], [172, 173, null], [174, 175, null], [176, 177, null], [178, 179, null], [180, 181, null], [182, 183, null], [184, 185, null], [186, 187, null], [188, 189, null], [190, 191, null], [192, 193, null], [194, 195, null], [196, 197, null], [198, 199, null]]" energy=-112.89683799447846 pbc="T T T"
H        0.07292794       6.34255574      13.35162596       0.01302340       0.38949233      -0.03335716      -0.29950399      -1.78158124      -3.29523651
H        0.01504154       5.90362626      12.54058749      -0.52187316      -0.34297151       0.18005332       0.17816840       1.79866319       3.31086065
H       16.32289253       8.28048781      21.95162973       0.06028040      -0.41188980       0.43925663       0.68064547      -0.69310055      -1.79098210
H       16.60931754       7.98925536      21.19996768      -0.29311558       0.12440426      -0.09922211      -0.67919522       0.69222799       1.79182794
H        5.56094800      14.92734675      10.46330138       0.72147032      -0.38227279       0.25516385       0.01617504      -0.01079829      -0.09155355
H        5.87123070      14.52218262      11.04809017       0.43114898       0.42923324      -0.16237872       0.06147090      -0.05774203       0.01300055
H       17.07565658      22.45039215      13.64434716      -0.25871032      -0.13517961       0.05513495       0.27361161      -0.95340978       2.17000889
H       16.80969163      22.31990471      14.47598209      -0.01181259       0.13442548       0.58354315       1.04084426       1.90199084      -2.05765867
H        5.44462029      11.46512067      13.09302556      -0.32759558       0.48160262      -0.04466706       0.70356962       0.70684808      -0.22619891
H        5.13129958      12.10226822      13.42137414      -0.14446459      -0.31622088       0.24244700       0.53948606      -0.78637665       1.12567342
H        9.79626448       5.83371529       6.95951624      -0.06663407       0.06962987       0.22642258      -0.21035441      -2.08781768       1.50201760
H        9.63474641       5.24469600       7.55414747       0.16239889      -0.19329257      -0.06936150      -0.05355728       2.65247087      -1.65118684
H        3.35365731      11.43343672      13.12515506       0.50355018       0.27397160       0.42486321      -0.84923999       0.64438809       0.53188904
H        3.04748092      12.18742281      12.95907611       0.10748359       0.24579113       0.08168172       1.14036106      -1.00257411      -0.57583583
H        7.48755956       3.53412633      14.59521686       0.31481128      -0.76993196      -0.45372504       1.68891346      -0.60143238      -0.76755236
H        7.87824268       3.84835517      13.93383379       0.15276491       0.13223810       0.39678717      -0.18034772       1.02043771       0.98891306
H        5.48557373      10.72785616      16.27795183      -0.45294920      -0.17409225       0.35154693      -1.07808437       1.39748286      -0.71722011
H        5.34621095      11.52678950      16.11239132       0.61668328       0.03720343       0.63396601       0.81376242      -2.17342125       1.10543371
H       10.66571173      13.30256392      14.68772035       0.14755794       0.58385623      -0.25052670       3.67564999      -0.17777549       0.41504562
H       11.31753446      12.92654887      15.15513490       0.08332458      -0.62382367       0.31045636      -2.58217197       0.55259304      -1.29246942
H        8.98035872       0.19137282       0.59235443       0.72278435       0.25158626       0.47842556      -0.00475555       1.64898753       1.17398029
H        8.71922156       1.01395924       0.77117824      -0.37309620       0.11602047       0.57669770      -0.08090958      -2.28873939      -0.34694005
H       20.20232290       3.57233051       3.06887771      -0.74560766       0.57598105       0.23735062       0.39896342      -2.26506350       0.04777022
H       20.38551162       2.78139551       2.73147044      -0.12574669      -0.22996594      -0.26699954      -0.60307774       2.54780878      -0.14106359
H        9.93919301       4.71361962      12.18132163      -0.18664243      -0.90448767      -0.32084228       0.18136277      -2.36191925       1.03936208
H        9.33820715       4.28680373      12.53211921      -0.24603090      -0.28313578       0.39651731       0.08717917       1.63552807      -0.64413538
H       13.88795606      18.30232946      11.50015877      -0.09596155       0.15081199      -0.49468242      -1.01030628       0.58201863      -1.17226737
H       13.22880231      18.72170525      11.37460134      -0.34487138       0.80031983       0.22378409       0.88461350      -0.75992410       0.23853874
H       14.58173937      22.42537507      20.65767250       0.62109327       0.14768029       0.28493034       0.91001267       0.02043901       1.54779598
H       14.57939671      22.24578953      21.46040402       0.50944447      -0.48461723      -0.37432043      -0.68797481      -0.50101794      -1.44908354
H       22.13256144       7.46648760       0.48488699       0.31906424       0.67741678       0.23555697       1.88551256      -1.81563815      -2.16989748
H       22.35880812       6.93267704      -0.20794634      -0.29729253      -0.56937391      -0.68444282      -1.40568059       1.46954720       2.29882302
H       10.95329557      22.25157691      15.23320498       0.09076480       0.00641776       0.39487771      -0.34030213       0.40946940      -1.53195106
H       11.06632373      22.25209376      14.39523734      -0.07265521      -0.45629831       0.15380108       0.05979630      -0.92880850       1.05803804
H       18.01888946       5.65009514      22.41715086      -0.28455838       0.45916258       0.05030209      -2.18193587       1.66602089       0.58368409
H       17.30898989       6.11875518      22.79536261       0.15637615      -0.84647779       0.32840475       1.95971104      -1.90038925      -1.65356348
H        8.61359724      13.34663542      13.04378174      -0.22112097      -0.20885293       0.34993423       1.07635627       0.60749576       0.75294566
H        8.27151169      14.01863223      12.81137017      -0.28797086      -0.68643168       0.60159359      -0.79444862      -1.00539315      -0.53310338
H       15.77940834      10.52342228      14.63118721       0.41904632       0.78875451      -0.57320993       0.43387952       1.12627587      -0.37592230
H       16.22689715      10.12288921      15.07866637       0.00281217      -0.35363131      -1.21470703      -0.26096902      -1.15090257      -0.32864648
H       10.41845135      14.35572187      10.78024299       0.18138533       0.26486985       0.40533576      -0.73808078      -1.09479217       0.21290803
H        9.76506478      13.90627826      10.45115479       0.27219197       0.87134620      -0.88581739       1.89226686       1.26259952       0.21824025
H       11.73355874       8.39334327       5.33137633      -0.27788746      -0.58411897       0.19976634       0.06459745      -0.70821310       0.47835359
H       11.04291057       8.12299475       5.11297048       0.04700416       0.40695020      -0.47797838       0.31078887       0.67727774      -0.61085613
H       22.26094756      -0.19437217       2.80076954      -0.08743541      -0.54513332      -0.16295806       0.28457264      -0.62439982       0.96161113
H       22.39443436      -0.01445385       3.55422366       0.08373233       0.02385379       0.06479221      -0.08111230       0.64231898      -0.95094157
H        0.25440664      22.43613437       6.62141454       0.48443001       0.60281481       0.58643384       0.94568095      -0.75745538      -2.89668604
H        0.59915547      22.02068259       5.91317496       0.04767483      -0.63207129       0.71940491      -1.68095238       1.17736900       2.92790171
H       11.92995292      20.54870297      11.02458387       0.20188513       0.42041804      -0.39970579      -2.44520965      -0.08286906      -0.72288399
H       11.13244228      20.26650790      10.96716793      -0.12006713      -0.71695398       0.26349677       1.78743911       0.30188874       0.26947535
H        1.57436647      18.65419848      10.93040596      -0.39799938      -0.65939334       0.22510997      -0.06064767      -1.44043838       0.08368017
H        1.99118049      18.43578483      11.58089590      -0.04225421      -0.30989481       0.02896203      -0.62756629      -0.00513478      -0.96329404
H       20.71608705      13.20867472      12.48802444      -0.22456330      -0.07164560      -0.01113755       2.11941298      -1.32791995      -1.93140836
H       21.18220464      12.57602882      12.02778146       0.52115807      -0.43860198      -0.07145318      -0.98307890       1.84589396       2.14185645
H       15.37813626       5.96385432      13.77770586       0.34176569       0.62233233      -0.15396827      -1.00973096       1.03993566       1.28321333
H       14.63884160       6.22066582      14.08899388      -0.48743533       0.22209197      -0.12354022       1.46729130      -0.45470554      -1.11454614
H       10.20780117      17.10607444      11.31937171      -0.00490888      -0.49695197      -0.07076119      -1.28066924      -0.45135171      -0.73285532
H        9.57328984      16.74530491      10.91531684       0.06834356      -0.35583667      -0.45445709       0.90671844      -0.09602960      -0.37965672
H        0.65730096      17.90591131      18.92466063      -0.21095100       0.61911443       0.08129046      -1.19454265       0.16266061       0.31356601
H        0.09919684      17.37610939      18.63249959       0.44457653       0.10227351       0.53496362       1.51659235       0.65524273       0.28568605
H        5.96208363       9.59175961      12.02955960       0.48496879       0.55749978       0.26899635      -0.28083278       0.36818375      -2.84103333
H        5.76279065       9.54601106      11.13067900       0.58194982      -0.05794290      -1.01805451       2.40917428      -0.33432231       3.45262046
H        0.00466686      15.11762744      12.24547823      -0.45162919      -0.22148767      -0.46906006      -0.01226082      -0.04067411      -1.01662238
H        0.20513096      15.75212219      11.83263328      -0.48976432       0.34960925       0.41940748      -0.49118594      -0.64005208       1.08102837
H       20.86166389       0.97026543      14.15607383      -0.62938999       0.35991842       0.06144207      -1.03586058      -0.02432870       0.62705102
H       21.20541854       0.76858586      14.83684218       0.72118304      -0.31834766      -0.42921514       0.03536599      -0.33573840      -0.65825859
H       19.47796932      12.78839802      15.12498816      -0.09286358       0.33460881       0.04135660       0.82870088      -0.71046431       0.97566412
H       19.40441693      13.26793589      14.59710721      -0.44415476      -0.35811218       0.58411890       0.20863166       0.48678582      -0.52752694
H       21.78757481      12.43932341       8.17363710      -0.07172086      -0.43453407       0.50395002       2.47508662       2.37193910       1.64460205
H       22.30720966      13.03079899       8.64922404       0.37155404      -0.50121230      -0.26446976      -2.40283055      -2.35016678      -1.68078710
H        1.74996255      14.05870874      11.25012411      -0.32835272       0.70693741      -0.28314170      -0.48876132       0.11486375      -0.14798561
H        2.13980395      14.50573209      10.76968344       0.07214908       0.27885372       0.25463012       0.24663402       0.56160474      -0.00233868
H       12.85855439      13.74068320      13.57805638       0.13713521      -0.01373127       0.37500475       1.86099560       2.22225592      -3.19312124
H       13.11856606      14.35420440      12.92283472       0.92168420       0.43358737       0.03520396      -1.25790387      -2.65985029       3.19486250
H       14.22566754       1.06516883      14.42489259       0.07062810      -0.89244259      -0.05868770      -2.12300077       1.93398617      -2.22960382
H       13.75716321       1.62632759      13.85782908       0.51499173       0.30304484       0.07737120       1.69913089      -2.21042474       1.88701953
H       18.89161540      11.37195547      12.07192070       0.57192492      -0.78230015       0.16137745       0.15976646      -1.21407777       0.15849804
H       18.80040013      10.54013038      12.03265247      -0.21889126      -0.64234259       0.37263896      -0.32931843       1.36838021      -0.23577727
H        3.49777574      14.41938608      14.33637275       0.21271001       0.25781600      -0.11576457      -0.46207808       0.82563431      -1.13258935
H        3.24118235      15.14183713      14.02424908      -0.09059251      -0.55060865       0.47539975       0.13993925      -1.28204776       0.72647156
H        0.39779941       6.42367092      15.38421049      -0.83848435      -0.14600867      -0.64540452      -0.00256461      -0.01016669       0.03867883
H       -0.29456947       6.84117373      15.40039860      -0.34201271       0.03508802      -0.21680658       0.40068656       0.13992352       0.14037748
H        6.72057291       9.09823807      21.73288728      -0.30462709       0.71222141       0.16470851       0.17357530       0.81027499       0.58689095
H        7.03278352       9.27381580      22.43888256      -0.16707192      -0.22469003      -0.15554507       0.47052827      -0.48777617      -0.43544167
H       12.61889263       0.04838239      12.41902508      -0.84125206      -0.22295794       0.10684192       0.29913101      -0.15460885       1.88631692
H       12.49660835       0.20422354      11.70347443      -0.30990801       0.02981512       0.91958408       0.55728224      -0.35915813      -1.62615933
H       20.27790893       9.10470998      13.67132916       0.69446160       0.41530028       0.79448288       0.02360546       0.60340644       1.30659898
H       20.41652885       9.57883104      14.29971685       0.09569849       0.52309183      -0.03450503      -0.21834003      -0.70587186      -0.38792489
H        8.49399268      10.60378571       8.31201214       0.53438647       0.15909625       0.20605300       0.86244114      -0.39901706      -0.36307114
H        8.03363941      11.10233384       8.65570423       0.35651535      -0.16922438       0.32521196      -0.30673487       0.42265770       1.03778494
H        8.48536504      10.26353542      13.92793279       0.48859063       1.50177686       0.11046613       0.36885253       1.03147301       0.81687382
H        8.08878205      10.63667507      14.50198111       0.18959139       0.22082498       0.18825480       1.05253163      -0.68474879      -0.50905518
H        0.15376775      21.72983426      15.92580848      -0.76971656      -0.50869244       0.57735550      -1.47445148       2.80223487       1.71297467
H        0.05372214      22.50504483      16.35126307      -0.59493825       0.03932681      -0.09906981       0.19774722      -3.38714828      -0.96315626
H       16.93953822      13.62478902      10.43914759      -0.01176529      -0.54596360      -0.49532722       0.75934222       0.12688120      -1.34954123
H       17.12685006      13.74294084       9.62075992      -0.17058226       0.64616329       0.17167766      -0.58154209       0.25928995       0.90600366
H       12.84096563      11.50660136      12.02732366      -0.15532546       0.42519358       0.25011211      -1.95126732       0.86552440       1.79821252
H       12.07907245      11.70108210      12.46068305      -0.46698210      -0.10468194      -0.35937316       2.02155835      -0.34863338      -1.17167548
H        6.58039799       6.10093893      11.11891262      -0.41293078      -0.12931854       0.49670201       0.81029331       1.83284802      -2.31099612
H        6.95607604       6.71891175      10.56820100      -0.08602030       0.73680468      -0.22429699      -1.15493057      -1.65749993       2.16392106
O       12.18727703       0.85847286      17.06935092       4.08422746       0.07984651       0.22030513      -5.00442121      -0.64716577       5.34099643
O       11.16289919       0.86677146      17.90329880      -1.56379061       1.63448867      -2.56472618       3.73442875      -0.32679329      -4.69815012
O        1.12303534      21.94775869       8.10325083       2.31374282      -0.06017533      -2.09354036       6.26363864      -1.76698484      -3.44144686
O       -0.00735495      22.12262353       8.82654230      -5.97149286       0.88665222       3.43146141      -6.11461966       2.44489576       3.08041675
O        9.60017352      11.41506189      12.11894584      -0.51067504      -3.68530637      -0.98231477      -0.49134252       0.36140220      -1.36797572
O       10.07922562      11.47405568      13.25449880      -0.34397091      -0.22749546       0.64400705       1.19667794       0.24772141       0.17853793
O       14.69210001      19.95134654      -0.06491793      -0.26344122       1.86005493      -2.24738249      -0.43233943      -0.27184456      -0.46858374
O       15.09227318      19.11891027       0.87177919      -1.01091519      -3.54176238      -0.01002786       1.10215137       0.54241566      -0.18556533
O       13.55708151      14.23705607      16.43994423      -0.88764798      -0.76695000      -1.98600155      -2.25366886      -1.10321014      -0.69200613
O       12.67194958      14.75454882      17.13044631       0.20489702       1.68566651       0.49908922       0.53382066      -0.15207818       1.06893927
O       10.64849878      21.61307026      21.02826050      -0.53189726       1.13463570      -0.51969824      -0.07179162       1.40510358       1.19406628
O       11.00024991      22.46121018      21.94990261       1.39373481       1.06746892       3.84534280       0.52961135      -1.01281407      -1.13003481
O        9.67398101       8.67840434      11.72130124       2.41085936      -1.75509096      -1.66910596      -0.99317164       3.67371565      -3.88644728
O        9.54963732       9.57249876      10.78443733       0.59409415       0.28367513      -2.73969952       0.58804899      -3.61175165       3.53113545
O       18.03972689      17.48666342       5.54071439       3.71476955       1.05620052       4.48696670       0.48536052      -1.16018359       7.14368817
O       17.76693764      17.57346216       4.16002498      -0.52854845       1.58446637      -5.98790240      -1.42063263       0.82273813      -7.25337079
O        8.93633759       4.74933796      21.86960628       0.06285418       0.16442415       0.06143337      -1.49369789      -2.21088834       0.44335430
O        8.56418357       3.48503373      22.02887454      -2.25088151      -4.24284631      -1.89965527       1.22192167       1.81188960       0.68117717
O       22.06661420      14.11732939       1.26376320      -2.24142885      -3.79922129       4.76898150      -0.54161686      -3.12377454       5.80716219
O       22.47028659      14.64053367       0.02908817       0.50018896       3.78893178      -4.19802735       1.08722213       2.86692713      -6.87802266
O       17.01190909       7.66391495       4.04857220       6.21670608      -2.70770024       1.16596636       4.05174081       0.56861197      -0.45106172
O       15.55601684       7.78668712       3.95510532      -7.43877712      -1.78502798       1.72843164      -4.55166162      -0.81957003       0.58533046
O        5.30396188      14.23731381      21.83441682      -3.41112488       3.24969496       1.82777976      -7.75652092       1.68334452       1.49627687
O        6.64477473      13.92937245      21.56506507       6.21459625      -0.42600357      -0.20950632       7.40742543      -1.59579066      -1.37505553
O       12.03312400      16.94393232      15.51080797      -1.12643339       2.56803024       0.21052887       0.11250158      -1.16422973       0.53174013
O       11.09665375      16.37621643      14.92899300      -1.71017305      -1.57538202       0.15479805      -0.28344074       1.44608422      -0.09681218
O       19.15856470       3.58975614      10.78776753      -4.53193918      -0.03483913      -1.89909430      -6.21055898       6.79655745      -2.00122679
O       20.08975050       2.67389844      11.00730382       5.72002519      -4.74805992      -1.23706715       7.41848959      -6.75205018       2.41749460
O       22.11062607      12.71651246      20.95723637       2.35605666       1.12192011      -5.97293490      -0.08910751       3.82646090      -7.62449092
O       22.46411158      12.39698321      22.21185177       2.79769004      -0.99232523       4.54969900      -0.20080396      -2.24418745       8.18462857
O        5.94413891      14.58434124      13.82182007       0.40072278      -1.45873380      -1.76718201       1.03973984       0.02021846       0.65628622
O        5.82220033      14.79557879      15.04975324      -1.81638090       0.83158891      -0.43289701      -0.73109182      -0.87869808      -0.95806054
O        5.89846162      22.05091578       0.50437389       0.90104840      -1.68878509      -0.82111631       0.99309614       1.07106387      -5.36956936
O        5.52276569      22.09610205       1.66243777      -0.40199598      -0.99059195       1.94946082      -0.62902303       0.66485438       5.53298815
O       18.74809065       7.97453849      11.44532568       0.02250271       2.43792531       0.27104539       0.64296780       0.07093649       1.43797439
O       17.89973330       8.85752616      11.54025272      -1.72822430       3.27566088       0.07816226      -1.97691450      -0.50080416      -1.31475616
O        7.81350976      16.93185634       1.30910044       0.35097171      -2.74452999      -5.26043652      -0.11484693      -0.10297797      -9.80915326
O        7.81259938      17.03866438       2.67039843       2.66000513      -0.49036399       6.09079014      -1.22635410       0.52767591       9.15629679
O       15.68006488       0.37300999       8.80190384       1.44267211       3.05653849      -1.84094968       0.08616819       0.11572268      -0.62614863
O       14.50557282       0.01947314       8.96267682      -0.45699888       0.39708049       2.79501095       0.15368208       0.15694641       0.98927367
O       10.26052371      11.52534176      16.08461771      -0.86666401       1.61394124      -3.16110861      -1.61267073       1.50234809       2.77795663
O       10.78537911      10.53652136      15.61048180       1.77708511      -1.32755630       0.19415187       1.00984318      -1.13445679      -2.66673785
O       15.98876922      12.97714458      14.13331274      -2.02770293      -2.11870504      -0.61345935       3.24958479      -2.88406933      -4.37975924
O       15.68569509      13.31644929      15.22671762      -0.62793960       0.14603880       1.67744277      -0.08925328       3.02731663       3.40719352
O       15.38891719       4.10775660      19.12866831      -2.38313225       4.69343398       2.81560469      -3.73520198       3.72706448       4.11569500
O       15.93783764       3.43562080      18.06222828       0.29099803      -6.48037770      -3.36292638       2.25688961      -4.77168750      -3.43377271
O       16.08430122       7.57549022      12.80928297      -0.11424980       3.02817933       1.30989286       0.10036589       0.00515817      -1.54369419
O       15.95097359       6.67742171      11.94665486      -1.76380900       0.60551790      -0.10875061       0.65747243       0.06389201       1.37254233
O        7.12598490      14.85142757      17.78412535       2.36196102      -6.54020106       1.02457960       1.72527953      -4.44251935       3.23598615
O        6.53657394      15.77740251      16.88419915      -0.95960188       4.92453584      -4.44857422      -2.80013966       4.76513971      -2.94494011
O       15.68167815       4.47607033      15.76197046      -2.62617804      -1.46834299      -0.99953334       1.97040588      -0.39826434      -2.83967271
O       14.95330638       4.85173158      16.61288958      -1.07758446      -0.08360206       2.13378532      -3.45535450       0.29179387       3.10016752
O       13.81977200       9.03349598      14.85073591      -0.74020254      -0.39375160      -1.82631382       0.27164370      -0.87569282      -0.62428460
O       13.42235243       9.97223176      15.46596822      -1.05566616       0.29474328      -1.43994480      -1.16079006       0.98817832       1.32268286
O        7.71803547      10.57290443      16.57486640      -3.01091801       0.33938814       0.54075352       2.23231026      -3.62217282       0.55833379
O        8.58726004       9.58921078      16.56947030       1.37161522       0.13918219      -2.33097695      -1.68382424       3.66346689      -1.63568908
O       15.59554622      20.23453671       5.33886634       1.92745574       2.49982783      -2.67045919       4.49018652       2.19242050      -6.28200398
O       14.89002474      19.96145186       6.43290117      -0.50166502      -0.18122973       5.68624743      -4.42414351      -2.86162603       6.39778000
O       21.92649139      17.07837683      21.24563482       0.48072988       1.02078541      -2.42109984       1.64312433      -1.91089159       2.80086431
O       22.29738360      16.65296341      22.40604520      -1.43958284      -3.52833721      -1.02874681      -2.94684445       2.08553965      -2.04889875
O       16.49041015       7.84914891      15.57241998      -0.24471129       4.19274154      -0.28862735      -2.75179082      -0.11480051      -1.39722412
O       17.66922281       7.60580894      15.59434967       0.64914757      -0.94312156      -0.32129911       2.31607494      -0.33469973       1.38893848
O        5.53372707      13.05310557       7.76360610      -0.72265350       1.68040420      -1.74580394       0.04724114      -1.16551284      -2.19337866
O        6.20041013      14.00294114       8.12918968       3.42069164       1.02810053       0.25670094      -0.01483799       1.23573145       0.47841464
O        7.16026195       8.38678768      18.10060461      -0.19373974       1.72551676       0.71718354      -0.50535134       0.46499897       6.92710344
O        7.24872924       8.28085986      19.37697446       1.67438950       1.37715374       1.88233043       0.64782175      -0.98236369      -3.39578153
O        3.97343720       6.99901347       8.66484883       1.83267208      -0.14508172      -2.75026167       0.75860709       2.78005851      -3.63051633
O        3.43034120       6.24605149       9.41044938      -1.35317274      -0.03077530      -0.45721366      -0.01130853      -2.44887680       3.55857898
O       22.19005098      10.10111323       0.09018032       3.34558845       0.86501635      -5.89867363       5.71910778       0.80317228      -7.69904080
O       21.15956610      10.07819897       0.94934075      -4.00734190       1.43235022       1.43823715      -5.61453168      -0.71870911       7.19026975
O       12.93748525      16.97346988      13.09835959      -0.20442495       2.56122833      -2.07666968       4.92427129       0.59727292       2.50075418
O       14.11466528      17.03866010      13.69866061       2.70906825       0.07799798       0.06638905      -4.23178475      -0.93293358      -2.33959688
O       10.48026972      12.88898103       7.50287380      -0.50022181      -1.25933144       1.89079767      -2.10121024       1.48435001      -1.74998132
O        9.55697798      13.18282878       6.65130705       0.37217380      -0.57429359      -2.82905123       1.84242057      -1.60966451       1.55254506
O        6.46373294       9.13506189       9.05624947       0.86594345       1.93065122       1.06265664       2.44982414       0.96456451      -0.67504330
O        5.45228050       8.76790218       8.47715738      -0.15475009      -2.33509031       1.41525620      -0.65439098      -1.19213224      -0.06949058
O       17.41382660      16.18796895       8.19486171       0.60104594       0.10767686      -0.05551371      -3.42595440       5.23162786       3.95977317
O       16.97554321      17.11071207       9.05463679       0.74663735       2.05245054       1.03828316       3.08868429      -5.15742499      -4.61199248
O        5.55751229       4.97314084       0.08729151      -2.89071154       0.33466654       0.76805841      -5.94186559      -4.67050435      -9.64640408
O        6.10714916       5.46533946       1.00570880       4.80416786      -0.37870430       0.79560129       6.52242000       4.27767834       9.68960374
O       12.56245282       5.44400220       4.62406715      -1.74350998       1.06563673      -3.19627086       0.56785726      -0.74762066       1.89474865
O       12.95853324       4.63116312       5.49513225       0.16100473       1.34684468      -0.57631989      -0.29632558       0.94018288      -1.34042947
O       10.94826332       5.14142377      10.06994334      -0.68621648       0.22663199       3.63192011       1.49633538       2.60815631      -5.25719467
O       11.29124618       5.86808548       9.00527680      -0.17030052       0.33820625      -0.35908471      -1.57609148      -3.36153610       3.45567969
O        6.52436410      12.47915096       9.74198559      -0.45321852      -1.59854904       0.37370912       0.25448332      -0.35895268      -0.94822185
O        7.56491960      12.75615018      10.31065568       1.43874540      -1.26062361      -0.12083348       0.59488667       0.53493967       0.28312695
O        7.56346053      11.94674411       5.98568032      -1.42923470       1.19226614      -0.90853027      -0.08595231      -0.43895764       0.89305564
O        6.57254786      12.52485888       5.58075177      -1.75422260       4.02208096      -0.27692425      -0.56816246       0.52989759      -0.32493343
O        8.42727738       0.63706246       8.77273654      -0.65708965       0.60127337       5.53032641       0.14115536      -1.29953859       8.95455724
O        8.46549689       0.68823675       7.39500684       0.14860998       2.44305744      -6.00737941      -0.43107327      -0.69426490      -9.22644560
O       22.01448784      14.62675059      15.77826004       0.37718544      -0.93669836      -0.39454877      -0.63898460      -2.31401665       3.43312077
O       21.87017828      13.57783363      16.51023629      -4.00797174      -1.44771699       2.66344866       0.11127462       2.83372677      -3.23333492
O       10.79974368      16.06488499       9.02287783      -1.67037982       1.20852243      -1.54121084       1.61656097      -0.77647888      -0.41520915
O       12.02228222      15.82420562       9.00088594       0.80382637      -2.16532946       2.86921536      -0.45548937       0.54094277       1.80981747
O       12.85836073      21.75102286       1.32495707       1.15145776      -2.78432071      -2.63694503       0.17702777      -0.33938757       1.69144439
O       13.05281407      21.95030947       2.61004682       1.21500746       1.21377417       0.55942486      -0.67260972       0.53595309      -1.11086668
O        9.07106145      -0.02210837      13.74188384       0.93075245      -1.66082647       0.77072119      -0.08768516      -2.19719257       1.61455119
O        8.91621818       1.10933608      13.34541138       1.35122048      -1.08044201      -0.75372009       0.44089758       1.76924763      -1.52589392
O       11.94630391       7.60882666      14.87101218       0.41250460      -1.46277319      -1.73705389      -1.78733299       1.65353538      -1.83001061
O       12.44440994       7.02950973      15.77863635      -0.88304672      -1.58348339       1.97884644       1.19666609      -1.72481838       1.41123032
200
Lattice="22.43773069742029 0.0 0.0 0.0 22.43773069742029 0.0 0.0 0.0 22.43773069742029" Properties=species:S:1:pos:R:3:momenta:R:3:forces:R:3 connectivity="_JSON [[0, 1, null], [2, 3, null], [4, 5, null], [6, 7, null], [8, 9, null], [10, 11, null], [12, 13, null], [14, 15, null], [16, 17, null], [18, 19, null], [20, 21, null], [22, 23, null], [24, 25, null], [26, 27, null], [28, 29, null], [30, 31, null], [32, 33, null], [34, 35, null], [36, 37, null], [38, 39, null], [40, 41, null], [42, 43, null], [44, 45, null], [46, 47, null], [48, 49, null], [50, 51, null], [52, 53, null], [54, 55, null], [56, 57, null], [58, 59, null], [60, 61, null], [62, 63, null], [64, 65, null], [66, 67, null], [68, 69, null], [70, 71, null], [72, 73, null], [74, 75, null], [76, 77, null], [78, 79, null], [80, 81, null], [82, 83, null], [84, 85, null], [86, 87, null], [88, 89, null], [90, 91, null], [92, 93, null], [94, 95, null], [96, 97, null], [98, 99, null], [100, 101, null], [102, 103, null], [104, 105, null], [106, 107, null], [108, 109, null], [110, 111, null], [112, 113, null], [114, 115, null], [116, 117, null], [118, 119, null], [120, 121, null], [122, 123, null], [124, 125, null], [126, 127, null], [128, 129, null], [130, 131, null], [132, 133, null], [134, 135, null], [136, 137, null], [138, 139, null], [140, 141, null], [142, 143, null], [144, 145, null], [146, 147, null], [148, 149, null], [150, 151, null], [152, 153, null], [154, 155, null], [156, 157, null], [158, 159, null], [160, 161, null], [162, 163, null], [164, 165, null], [166, 167, null], [168, 169, null], [170, 171, null], [172, 173, null], [174, 175, null], [176, 177, null], [178, 179, null], [180, 181, null], [182, 183, null], [184, 185, null], [186, 187, null], [188, 189, null], [190, 191, null], [192, 193, null], [194, 195, null], [196, 197, null], [198, 199, null]]" energy=-98.49773469009685 pbc="T T T"
H        0.06222853       6.39566678      13.28093119      -0.06627550       0.07706070      -0.46324005      -0.15446437      -0.55075877      -0.56425758
H       -0.10211386       5.88197010      12.67234887      -0.41643105       0.12463003       0.72583100       0.18983781       0.54007282       0.68326229
H       16.36689964       8.14561468      22.00257069       0.18016094      -0.57202601       0.05568522       0.05954455      -0.04089266      -0.29443982
H       16.53058823       8.03232539      21.23922370      -0.40329153       0.27970833       0.30328055      -0.06403342       0.04438577       0.29495195
H        5.69648365      14.84845291      10.49338651       0.31048745      -0.19869037      -0.19242421      -1.38093850       1.18382714      -2.64144502
H        5.98144601      14.60606135      11.02904986       0.52208807       0.12668332       0.12249731       1.45113234      -1.23309978       2.67648106
H       17.00640699      22.38375199      13.73279210      -0.27964111      -0.32355953       0.57562169       0.30241933      -0.05906020       1.38627776
H       16.82125062      22.39819112      14.56068172       0.05045757       0.49360534       0.07672001       0.52381279       0.78340733      -1.33235149
H        5.38801224      11.60712598      13.07015116      -0.07993982       0.46933871      -0.25870258       1.08835247      -0.73419623      -1.44502470
H        5.07291477      12.03337419      13.51981507      -0.38227380      -0.16590238       0.59409599      -1.00616614       0.92594945       2.08270559
H        9.78969962       5.80430501       7.05066894      -0.02174854      -0.25009149       0.48249672       0.38864704       0.75750411      -0.58860036
H        9.66060304       5.23910432       7.48500515       0.01291611       0.08429269      -0.37827915      -0.47563513      -0.24254351       0.68016087
H        3.42709822      11.53125785      13.21955973       0.17372356       0.47988114       0.36697181      -0.47771981      -0.12208425       0.30590965
H        3.09618186      12.21103979      12.96234684       0.31606350       0.04157246      -0.05046269       0.45412560       0.01033888      -0.02503160
H        7.59744963       3.34304834      14.48921348       0.43936823      -0.93214299      -0.29040370       0.00266939      -0.54544628       0.03688693
H        7.91202081       3.91270846      14.04556095       0.11436371       0.46770787       0.39402053       0.11350666       0.84501326       0.14535317
H        5.37611580      10.71833148      16.35421173      -0.49542560      -0.02527287       0.28214544      -0.02096862       0.38711701      -0.42465027
H        5.52405022      11.50308440      16.27189785       0.75960790      -0.25542662       0.68678217       0.22705802      -1.77681509       0.51406340
H       10.80530294      13.41725002      14.64468118       1.03643483       0.31201860       0.09727879       2.40829838      -1.85527074       1.37081129
H       11.24197971      12.81796417      15.17226037      -0.71518988      -0.27172516      -0.21248177      -2.12127574       2.25981207      -1.63196006
H        9.14998404       0.30605373       0.74426717       0.65490934       0.63828718       0.70892938      -0.43141872       0.94681302      -0.05897834
H        8.65253326       0.96559913       0.91954559      -0.20944324      -0.40850099       0.55523023       0.50407372      -0.96831427      -0.51601804
H       20.06956254       3.59785211       3.12888718      -0.39080461      -0.36324853       0.18977058       0.75942428      -2.30225107       0.23638911
H       20.32922308       2.84433351       2.68654876      -0.33828459       0.80289664      -0.14826773      -1.06487715       2.89847283       0.24887457
H        9.89662396       4.43504236      12.12532400      -0.14907518      -1.43816358      -0.11686371       0.58704020      -1.30536050       0.26199364
H        9.29534057       4.25486530      12.59614821      -0.12550329      -0.00192886       0.08406267      -0.47895395       0.45230112      -0.39581330
H       13.83851264      18.36506414      11.36211693      -0.48017650       0.40075350      -0.60347440      -1.80535124       2.21794422      -0.05215877
H       13.19608062      18.87798297      11.44559122       0.11520058       0.42739817       0.28324131       0.71526601      -0.70432085       0.13525901
H       14.76380303      22.44778215      20.74712415       0.81531391       0.19619810       0.20122568       0.73234427       0.78912002      -1.83372758
H       14.68936265      22.10885026      21.34230735       0.33713371      -0.67679002      -0.47355634      -0.63775522      -1.78454297       1.00733965
H       22.26695942       7.53914674       0.46462921       0.72982802      -0.20264156      -0.37324836       0.42597878      -3.32258020      -3.54862872
H       22.23390775       6.86856852      -0.26073098      -0.66433625       0.18088604       0.30702928      -0.64688121       4.04236020       3.63351587
H       10.95879328      22.27672695      15.27600309      -0.13895527       0.17021348       0.03281238      -1.13367030       0.73420043      -0.17199322
H       11.04954099      22.11735566      14.47259879       0.03441322      -0.67516205       0.40017299       0.60808064      -0.92576142       0.64329397
H       17.92793331       5.78364871      22.41889340      -0.30512232       0.55331480      -0.15304086       1.59231467      -1.10243491      -0.64807665
H       17.35481982       5.89537900      22.84219320       0.00283206      -0.89257878       0.22470407      -3.44831814       0.19692325       1.73812963
H        8.60832486      13.28359683      13.14986565       0.16469514      -0.37216840       0.53241129       1.48939619      -1.12196101       0.73537460
H        8.18430785      13.82274738      12.94726242      -0.47946713      -0.66432345       0.48058974      -1.62539974       0.56252365      -1.43341562
H       15.94853419      10.74542595      14.50055046       0.84582224       0.91700908      -0.44465874       1.08101589      -0.75780966       1.07801982
H       16.22518127      10.01624116      14.75145210       0.06092266      -0.49468281      -1.40322367       0.07978520       1.04721109      -0.61204391
H       10.41278809      14.40132884      10.86382480      -0.16851231       0.05955457       0.30042127      -0.87067310      -1.04387570      -0.77344859
H        9.90404207      14.18682191      10.24453082       0.84084183       1.32636444      -0.82515471       1.22806514       1.02616186       0.91326300
H       11.71321141       8.25514402       5.37488999       0.03981148      -0.49135669      -0.01089440       0.33274404       0.72809358      -0.15595155
H       11.07402187       8.21949684       4.98256636       0.07588352       0.31285418      -0.47296051      -0.43012861      -0.47476457       0.60570424
H       22.23822226      -0.33631526       2.77348180       0.03192075      -0.59087563       0.00074245       0.73880351       0.50738540       1.32006510
H       22.39975885      -0.00780094       3.53997688       0.01996493      -0.05682060      -0.18796138      -0.60153395      -1.96092344      -1.24730977
H        0.37222244      22.54491256       6.68217180       0.47960528       0.38396778      -0.04396835      -0.14937655      -0.62481328      -1.29529196
H        0.55796064      21.89995170       6.17383550      -0.16927601      -0.28837558       1.36499122      -0.45037711       0.57716113       1.43863870
H       11.89402910      20.59541452      10.90971507      -0.63805285      -0.18258268      -0.46340133      -2.87720744      -1.87121315       0.53830482
H       11.14408910      20.13019750      11.03145856       0.30098640      -0.28145670       0.18066889       2.87646721       2.85386664      -0.20282934
H        1.49371130      18.48677188      10.99230624      -0.33458860      -0.54330444       0.25755139      -0.14171761       1.57037259      -0.20372376
H        1.97033949      18.35315207      11.58106158      -0.03718975      -0.44585352      -0.00990587       1.38938111      -0.94920602       0.67608829
H       20.74648288      13.12567085      12.45121506       0.38747097      -0.62694078      -0.25782859       2.09013823      -1.42929894      -0.50744479
H       21.24771600      12.54175174      12.07272961      -0.14270842       0.14195859       0.27406579      -1.45855205       1.71953868      -0.15569989
H       15.41420196       6.12416962      13.77164919      -0.10983431       0.79255380       0.10704989      -2.37728895       1.55860687       1.61719123
H       14.58167005       6.24881501      14.02817026       0.11287330      -0.06942058      -0.39241060       2.75686829      -0.96989304      -1.39193669
H       10.15630073      16.99545148      11.28719373      -0.34551580      -0.38416944      -0.06676381      -0.05831433       1.13434817       0.60893486
H        9.65317490      16.66360295      10.80228255       0.60511273      -0.30316493      -0.42684948       1.16459644       0.25454501      -0.31429003
H        0.62070535      18.07284253      18.95178622       0.03947120       0.71436589       0.00677700       0.78951534       0.29548848      -0.12065334
H        0.27755688      17.40102238      18.75255516       0.90771465       0.03350062       0.45505575       1.68896171       0.22403572      -1.52317051
H        6.07582607       9.74093791      11.94001637       0.38037801       0.53690902      -1.07098617      -0.68622944      -0.55751515      -4.29237581
H        5.95470548       9.54087599      11.04440332       0.88998897       0.00101373       0.31394968       0.05476291       0.16945494       4.49658933
H       -0.15181355      15.06469742      12.10320024      -0.86397845      -0.16017369      -0.66322892      -1.08046086       0.76478088       0.25901226
H        0.10163439      15.81132035      11.93577717      -0.38410880       0.12554390       0.43453489       0.13473522      -1.01206207       0.00594454
H       20.72216554       1.06044081      14.19109650      -0.19656038       0.32136229       0.35223228       3.16047721      -1.01749400       1.93938085
H       21.36816885       0.68476032      14.72590349       0.58140419      -0.29533763      -0.51118188      -2.43712380       0.93631102      -1.44771198
H       19.48840370      12.84403837      15.19027865       0.12536306       0.03022924       0.47430553       1.40415240      -1.53927333       1.41743653
H       19.29128736      13.23629584      14.67463067      -0.50720483       0.10024672      -0.00349399      -1.15061540       1.56668580      -1.89817039
H       21.81942663      12.39776887       8.31765459       0.06106822      -0.03365402       0.51964182      -0.98853452      -0.35635309      -0.60646348
H       22.34578031      12.86371701       8.55511209       0.03028226      -0.70212069      -0.40641716       0.68681315       0.89542538       0.74255490
H        1.66593820      14.21997126      11.20742124      -0.37342849       0.53929682      -0.11745438      -0.15922072      -0.30502198       0.07011943
H        2.16573506      14.59440586      10.78594654       0.10738530       0.41766567      -0.11732218       0.07499599       0.69368571      -0.24023577
H       12.92918104      13.81428712      13.55857412       0.43654445       0.63631159      -0.41559651       0.93525542       1.05387288      -1.30099149
H       13.28397251      14.39952562      13.01601651       0.51350329      -0.01248259       0.72063074      -1.23067003      -1.70492852       1.05508283
H       14.18803430       0.90445741      14.32892252      -0.44873731      -0.43709586      -0.67457414      -0.89111530       1.51291475      -1.68518887
H       13.96198220       1.62132595      13.93587743       1.02436423      -0.27854961       0.56344844       1.15776542      -0.92473874       0.81717124
H       19.02782946      11.15202558      12.12929543       0.53671473      -0.97168222       0.30104141       0.10862323      -0.32421954      -0.76621469
H       18.73959158      10.42874536      12.12419697      -0.20291218      -0.28452668       0.32595629      -0.07954614      -0.05617061       0.39637374
H        3.57462797      14.47523423      14.28757548       0.49799710       0.03345757      -0.18578082       0.72785347      -1.88239555       0.78858755
H        3.22982141      15.02966792      14.14121419      -0.13938364      -0.28853279       0.37967673      -1.03524299       1.25446628      -0.54171616
H        0.21566629       6.40333719      15.23418258      -0.61978423      -0.03904305      -0.59623396       0.44916233      -0.19693738       0.17585213
H       -0.34946170       6.86061590      15.33448829      -0.12007314       0.17964384      -0.26592324      -0.91064815       0.29743311       0.26745487
H        6.62778583       9.28644837      21.79366365      -0.38217254       0.84447418       0.27443596      -0.35765504      -0.12309312      -1.41098022
H        7.01350282       9.20722240      22.40942156       0.01599743      -0.22228232      -0.11853774       0.76867325      -0.08393488       1.29578017
H       12.43375643      -0.02859084      12.54762226      -0.70660955      -0.43133249       0.92560016       0.37233495      -1.45246142       1.23118875
H       12.43936323       0.19205411      11.86745108      -0.17966991      -0.08158784       0.54219388       0.45376791       1.13409748      -0.53625772
H       20.46746658       9.19769500      13.85944803       0.83235218       0.25906358       0.55901391       0.66231508      -1.70267405      -1.90348266
H       20.43018135       9.70360547      14.32310983       0.08725210       0.62739784       0.29733899       0.05135443       1.78410735       2.02089966
H        8.66725808      10.66578642       8.33995674       0.72492030       0.39459187       0.10251138       0.47764813      -0.54559566      -0.07516544
H        8.09396748      11.07109617       8.73512081       0.21762706      -0.15216609       0.30450058       0.85554496      -0.12890627      -0.02822017
H        8.62504493      10.62788385      13.95970892       0.68665039       1.50728106       0.08298707       1.42330546       0.35996517      -0.91874356
H        8.16281895      10.68363941      14.53812543       0.34708980       0.11026434       0.21087664      -1.33462120       0.11607089       0.63435555
H       -0.06599432      21.68925398      16.10925749      -0.89139147      -0.02965260       0.78801976       1.00355001      -0.43737205      -0.33653493
H       -0.08898798      22.43606462      16.31005543      -0.59817756      -0.34883952      -0.12234347      -0.73817121       0.22008518      -0.20878733
H       16.94016683      13.49944958      10.29562349      -0.00741596      -0.57782764      -0.63583258      -0.25864111       0.26998195       0.50768900
H       17.08703654      13.90082917       9.66217014      -0.10873575       0.73479592       0.11576936      -0.66325848      -0.04771881      -0.47340619
H       12.74226387      11.62135792      12.13168285      -0.55710709       0.46167652       0.48584506       0.10387151       0.24525828      -1.04618694
H       12.00810909      11.68882825      12.34730780      -0.17933265       0.04140483      -0.47702616      -0.25941792      -0.00742367       0.61102514
H        6.52313409       6.15117438      11.15647064       0.01874610       0.55658937      -0.15542136       1.31391346       2.80044080      -2.10403566
H        6.88653896       6.81697346      10.59430311      -0.45135373       0.11781692       0.31199587      -1.31225024      -2.38488765       1.92110238
O       12.23823486       0.85324643      17.08384401       2.51025062      -0.15486994       1.43826261      -4.81811799       1.12296848       4.65728185
O       11.14924639       0.89341559      17.85462967      -0.47359087       1.92835362      -3.75911933       4.38472010       0.53466237      -4.85615124
O        1.17188399      21.94381110       8.06720018       3.68089419      -0.43767114      -2.39248160       2.22095365      -0.47272205      -0.05145967
O       -0.10275442      22.14227125       8.88518643      -6.31026857       1.39316801       4.04594636      -1.83462528       0.49211454      -0.02223546
O        9.59469306      11.35854878      12.10233826      -0.32630899      -3.86379842      -1.14356446      -1.53468462      -0.92124002       1.41489347
O       10.07893107      11.46743018      13.26607795       0.19878311      -0.29872218       0.81542151      -1.09481496      -0.60836743      -0.99225747
O       14.69124485      19.97867945      -0.09477783       0.39237920       1.64635288      -1.48756593       1.31210735      -2.36372836       4.76858825
O       15.07162805      19.06742318       0.86652086      -1.58535322      -3.11217609      -0.89093818      -0.71148459       2.58016053      -4.16158988
O       13.53945269      14.22695765      16.40930662      -1.41333579      -0.26744876      -2.13386269      -0.72366497      -0.13957204       2.32392307
O       12.67598067      14.78101857      17.13904576       0.71734540       1.74668041       0.24397467       0.73042239       0.22927719      -2.11086175
O       10.64071187      21.63270802      21.02622593      -0.50773804       1.28380975       0.24238300       0.79556987       1.48903290       3.27574391
O       11.01742000      22.47381687      22.00540539       1.04878132       0.81243498       3.13564254      -0.84505956      -2.23635303      -3.85927152
O        9.70894993       8.65413114      11.69394467       1.84887068      -1.42499399      -2.33735613      -2.93619017       4.23222170      -5.48600629
O        9.56349416       9.57253624      10.74497560       1.01845037      -0.33937429      -2.09938203       1.21119108      -4.02039054       5.51174667
O       18.09528121      17.50405082       5.61083847       3.54156997       1.22563605       4.15471419      -0.28659623      -0.71994811      -1.31216976
O       17.74896574      17.60028377       4.05932112      -1.51339794       1.83706037      -6.72061878      -1.16930352       0.26643884       1.45016401
O        8.93920674       4.75246337      21.87195881      -0.16862018      -0.02074647       0.37545524      -1.46058165      -4.22185071      -0.41422636
O        8.53256522       3.42625681      22.00136626      -1.91594034      -3.14896062      -1.78591087       1.56610404       4.21075258       0.49947793
O       22.03072073      14.04981862       1.34007360      -2.07907207      -4.88706572       4.96901723      -0.65508876       1.26090036      -0.22665441
O       22.47930546      14.69902075      -0.03787824       0.85359536       3.94671156      -4.29850305       0.72233926      -0.27548420       1.84337655
O       17.11146869       7.62389704       4.06975191       6.13592385      -2.72854582       1.37749670      -4.97150261      -0.54067319       0.07462684
O       15.44193921       7.75496886       3.98429286      -7.03062868      -1.90982515       2.03811844       5.33142696       0.70939835      -0.12678781
O        5.24329642      14.28301767      21.86216296      -3.93419857       2.65642476       1.64217433       0.87946468      -0.29486612      -0.20684823
O        6.74935362      13.91823437      21.56110236       6.89233957      -0.90503647      -0.33315801      -0.75113107       0.09213273       0.20230495
O       12.01982919      16.98456338      15.50797652      -0.98373473       2.65941737      -0.61132164      -1.44251854      -0.20943655      -1.40844886
O       11.06760742      16.35538851      14.94016001      -2.04912392      -1.17258223       1.29425637       0.66035102       1.01503871       1.37195646
O       19.08423962       3.60455236      10.76046608      -4.90242324       1.39597876      -1.81424777      -2.57234865       1.30934874       0.23941709
O       20.18386125       2.59140250      10.99274981       6.37861751      -5.85703102      -0.50651082       2.95908928      -0.70381717       0.40934095
O       22.14554943      12.73641968      20.85160388       1.72408033       1.28070439      -7.59864965      -0.29738572       1.44657715      -2.95366293
O       22.50792882      12.37755883      22.29488532       3.17111198      -1.59427954       6.14096018       0.13998849      -0.53013441       3.64367150
O        5.95036974      14.57042646      13.79872189       0.23843455      -0.32688025      -0.95176458      -0.27678738       1.07413422       4.13586471
O        5.79208417      14.79907917      15.04321913      -2.17321702      -0.12293360      -0.40092468      -1.04479896      -1.02104410      -3.52165425
O        5.91065278      22.02662949       0.48206611       0.76330022      -1.43010551      -1.64173582      -0.01961295      -0.40545440       0.70463158
O        5.51034487      22.08174572       1.69692366      -0.86175549      -1.11489651       2.42479428       0.06190236       0.44716961      -0.48242605
O       18.74743378       8.01382602      11.45503728      -0.02445016       2.73996090       1.03196226       0.77863290       3.22234097       0.41161249
O       17.87392590       8.90341297      11.53796704      -1.60406991       2.81186884      -0.28601333      -0.27303568      -3.50634610      -1.32042480
O        7.81816086      16.88784947       1.21425327       0.49765640      -3.08531123      -6.56170103       0.41077389      -0.07608706       0.97013571
O        7.84714944      17.03138459       2.77840182       1.87301789      -0.31562388       7.13421007      -0.36897662       0.87586187      -1.85858191
O       15.70334070       0.42360071       8.77564251       1.63109797       3.50780285      -1.44813994      -3.58375888      -1.18168191      -0.41927637
O       14.50215932       0.02405070       9.00753488      -0.04404740       0.48841615       3.30759023       2.80177358       1.12970673       0.38266318
O       10.24753912      11.55131776      16.04484518      -0.90736017       1.55199288      -2.64879402       0.82057957      -0.94082674      -1.35107808
O       10.80962742      10.51677596      15.60922503       1.38201454      -1.06730954       0.40017577      -0.39367644       2.08737127       1.81747238
O       15.96294786      12.94487532      14.11687181      -1.33925499      -2.41229404      -0.94707586      -0.13247175       0.37329633      -0.34762840
O       15.67236459      13.32649484      15.25759727      -1.01808989       1.16465519       2.32689848      -0.49694073       0.28057232       0.59283138
O       15.34791876       4.18372706      19.17882930      -2.95345714       4.91725690       2.99648119       1.73091457      -1.96317115      -1.23305444
O       15.94403006       3.32912070      18.00863068       0.46696815      -6.91385410      -3.33771205      -0.60800126       0.92830591      -0.01427990
O       16.08326430       7.62774981      12.83126287      -0.09753111       3.34727315       0.95326274      -1.12471839      -3.07040640      -4.47432233
O       15.92584717       6.68749533      11.94777619      -1.54638521       0.46626529       0.37308350      -0.58896005       1.34916592       5.69702614
O        7.16445494      14.74838015      17.79833238       1.94375628      -5.61735683       0.10963320     -10.04106902      18.72924575     -16.86915637
O        6.52671624      15.85979641      16.81668571       0.34905016       4.48609960      -3.15552062      10.93007178     -18.48934466      16.23274847
O       15.64837080       4.45592659      15.74373773      -1.96736655      -1.34910502      -1.51857272       0.36383248      -0.59560576      -1.39060669
O       14.93012551       4.84757635      16.64599658      -1.72585217      -0.56673931       2.50052377      -0.64685009       1.14334002       1.16029106
O       13.80840656       9.02998096      14.82366180      -0.57922132      -0.01495133      -1.66531504       0.71599975      -0.62820973      -0.91321097
O       13.40669063       9.97535924      15.45006200      -1.01072493       0.30000112      -0.89792854      -1.41386548       0.91209870       1.43431551
O        7.68181499      10.57289140      16.58153972      -1.83635227      -0.47745238       0.24577002       4.53621219      -3.88903609       0.92575088
O        8.60587252       9.59529494      16.53249800       0.85517639       0.70548142      -2.54385542      -4.87244409       3.68607267      -0.74174637
O       15.63022794      20.27558574       5.28642339       2.94336064       2.61018281      -3.87664177       0.52788784       0.70072706      -2.07453903
O       14.87472544      19.95510240       6.52734691      -1.21150128      -0.21033913       6.43548335      -0.53981780      -0.95341708       1.66107715
O       21.93034738      17.10028925      21.20077067      -0.04238692       1.87175823      -3.65555647      -1.82142092       3.30311277      -6.85992964
O       22.27793455      16.59808991      22.40420173      -1.18680482      -3.84077824       1.05218898       2.40946145      -3.97507239       6.73117083
O       16.48702024       7.91364829      15.56483223      -0.31994053       4.20926746      -0.71692631       1.83407250      -0.35331831      -1.43338212
O       17.68078265       7.59210435      15.59751584       0.52918473      -0.85866614       0.64222757      -2.93209953       0.61949675       1.68002090
O        5.52607895      13.07669428       7.73086373      -0.17682859       1.16621407      -2.51344769       0.60396255      -0.12962634      -1.15514102
O        6.24698125      14.01803017       8.13181826       2.81116415       0.84334672       0.20679986      -0.25780747      -0.75020205       0.90706803
O        7.15347328       8.41530221      18.12637175      -0.89880044       1.94280194       2.64825628       0.64020468      -0.07867680       2.38491152
O        7.27897799       8.30631343      19.40019426       1.99120528       1.88514032       1.20014864      -0.96159091       0.52428632      -3.51384169
O        4.00165110       7.00028089       8.61925967       1.59074388       0.50462378      -3.12466767      -0.39984223       0.11400119       2.63489826
O        3.41211860       6.23829736       9.40968096      -1.04713947      -1.08230323       0.23496828       1.01881173      -0.84362717      -0.51431487
O       22.24539418      10.11613368      -0.01118768       3.54357732       1.29426840      -6.92425592      -0.28430479       0.59433775      -3.10790571
O       21.08786708      10.09797110       0.98579600      -5.32818863       1.10660845       2.94744936       1.03351923      -0.49619273       3.06218215
O       12.94910114      17.01009063      13.07425698       1.69153679       2.36061083      -1.00066633       6.16217188       0.52536152       2.75030255
O       14.14081678      17.03931584      13.69560026       0.79241744      -0.08137228      -0.52291022      -5.56605086      -0.98036730      -2.62714241
O       10.47438216      12.87713904       7.52694840      -0.42716019      -0.13057645       1.05527226      -5.26244965       2.26886793      -4.41244531
O        9.56799563      13.16409162       6.60638924       1.14206540      -1.66773668      -2.59852801       4.97534739      -1.97402406       4.63566365
O        6.47715933       9.16593329       9.07196023       0.82887800       1.81107186       1.00661770      -0.39216664       0.40671241      -0.52362449
O        5.44449697       8.73405590       8.49630804      -0.28493782      -2.14384412       1.12553286       0.72549753      -0.06374225       0.22126977
O       17.41291455      16.19399823       8.20236205      -0.72477099       0.82670966       1.23801561      -0.51801713       5.93137108       3.82356250
O       16.99242117      17.13465538       9.06185100       1.10286482       1.03566384      -0.43458322       2.09722625      -5.98447815      -4.08584210
O        5.50275200       4.97203424       0.08398814      -3.57510771       0.18700320      -0.51457139       0.72619500       2.06308056       2.48216852
O        6.19347968       5.46297824       1.03660427       6.07004217      -0.32975785       2.60490737      -0.12283772      -1.95437496      -2.28962004
O       12.53397496       5.45983104       4.57943083      -1.58952027       0.99151839      -2.44413510       1.61738656      -0.91201641       3.35111144
O       12.96421570       4.64946960       5.48318130       0.46003716       1.31498657      -1.12941854      -0.74621239       0.26840181      -2.82702855
O       10.94164684       5.15182581      10.10810706      -0.07692525       1.10096178       1.47448321       2.65017501       4.24299707      -5.81500657
O       11.28817994       5.86643187       9.00962792      -0.41111829      -0.56117190       1.13987285      -1.73655638      -4.52218220       6.54914220
O        6.51425017      12.45881283       9.74862576      -0.41357486      -1.24282580       0.32325032       0.38742760      -0.87898171       0.39165732
O        7.58988924      12.73950094      10.30592211       1.61318536      -1.34382248      -0.38658663      -0.65441218      -0.07159559      -1.54638181
O        7.54133440      11.95990927       5.96954244      -1.56758631       0.74388438      -1.39391465       0.72878261      -0.07367316      -0.20980501
O        6.54762313      12.58414085       5.57549454      -1.37679872       4.02118777      -0.05149133      -0.27568531      -0.39563531       0.10115864
O        8.41443766       0.64486482       8.86627704      -0.93859154       0.56340520       6.35399946      -0.06548946       0.00690180      -0.82670424
O        8.46987674       0.72281922       7.29224473       0.75900190       1.87180202      -7.11976281      -0.05032209      -0.07199090       0.80071487
O       22.01775980      14.60446020      15.78334145      -0.24282032      -1.79729103       0.60769888      -0.75646171      -5.08080209       4.05087313
O       21.81107484      13.56262173      16.54397503      -3.74654949      -0.76143631       1.67636825       0.21108268       2.60889059      -4.26577518
O       10.77597566      16.08782019       9.00055327      -1.40892856       1.44910611      -1.16588565       3.49903045      -0.94662027      -0.56579143
O       12.02989461      15.79597430       9.05078089       0.26305243      -1.58005532       3.28787800      -3.94085898       1.00100831       0.76299802
O       12.86941983      21.70148790       1.29499213       0.58680595      -3.34386274      -1.42330744       1.73767138       0.23361662       3.76319207
O       13.06795975      21.97025235       2.61389463       0.62986276       1.15666249      -0.03499081      -0.37584213      -0.30007048      -3.05931484
O        9.08667697      -0.04716736      13.74725504       1.10809194      -1.55788554       0.23315112       0.79034111      -0.09962925       0.02951438
O        8.93565169       1.09403727      13.33218206       1.64565492      -0.83499771      -1.19754575      -0.31504255       0.75484886       1.10811239
O       11.95369584       7.58532143      14.84617401       0.22257457      -1.89065654      -1.39460636      -0.28204226       0.38276977      -0.53530896
O       12.43158148       7.00500059      15.81108313      -0.71595268      -1.33920661       2.06417667       0.26361495      -0.25880537       0.55493673
200
Lattice="22.43773069742029 0.0 0.0 0.0 22.43773069742029 0.0 0.0 0.0 22.43773069742029" Properties=species:S:1:pos:R:3:momenta:R:3:forces:R:3 connectivity="_JSON [[0, 1, null], [2, 3, null], [4, 5, null], [6, 7, null], [8, 9, null], [10, 11, null], [12, 13, null], [14, 15, null], [16, 17, null], [18, 19, null], [20, 21, null], [22, 23, null], [24, 25, null], [26, 27, null], [28, 29, null], [30, 31, null], [32, 33, null], [34, 35, null], [36, 37, null], [38, 39, null], [40, 41, null], [42, 43, null], [44, 45, null], [46, 47, null], [48, 49, null], [50, 51, null], [52, 53, null], [54, 55, null], [56, 57, null], [58, 59, null], [60, 61, null], [62, 63, null], [64, 65, null], [66, 67, null], [68, 69, null], [70, 71, null], [72, 73, null], [74, 75, null], [76, 77, null], [78, 79, null], [80, 81, null], [82, 83, null], [84, 85, null], [86, 87, null], [88, 89, null], [90, 91, null], [92, 93, null], [94, 95, null], [96, 97, null], [98, 99, null], [100, 101, null], [102, 103, null], [104, 105, null], [106, 107, null], [108, 109, null], [110, 111, null], [112, 113, null], [114, 115, null], [116, 117, null], [118, 119, null], [120, 121, null], [122, 123, null], [124, 125, null], [126, 127, null], [128, 129, null], [130, 131, null], [132, 133, null], [134, 135, null], [136, 137, null], [138, 139, null], [140, 141, null], [142, 143, null], [144, 145, null], [146, 147, null], [148, 149, null], [150, 151, null], [152, 153, null], [154, 155, null], [156, 157, null], [158, 159, null], [160, 161, null], [162, 163, null], [164, 165, null], [166, 167, null], [168, 169, null], [170, 171, null], [172, 173, null], [174, 175, null], [176, 177, null], [178, 179, null], [180, 181, null], [182, 183, null], [184, 185, null], [186, 187, null], [188, 189, null], [190, 191, null], [192, 193, null], [194, 195, null], [196, 197, null], [198, 199, null]]" energy=-104.76618190413868 pbc="T T T"
H        0.04748606       6.42211197      13.16095990      -0.03178317       0.17935504      -0.42678785       0.96869976       1.95323906       1.36041514
H       -0.20813266       5.88548944      12.81785736      -0.51607762      -0.12074420       0.38738852      -0.90046489      -2.00527195      -1.21328533
H       16.41158284       7.99534534      22.01447187       0.11244648      -0.56415262       0.23648386      -0.01480972      -0.19191882       1.21607922
H       16.42282006       8.10791881      21.29307844      -0.42525599       0.29720823       0.03728829       0.01593420       0.18988658      -1.21515658
H        5.73034809      14.82530345      10.41133737       0.14407811      -0.13059527      -0.33882954       0.71235951      -0.42358299       1.24250822
H        6.14251672      14.59683091      11.09882080       0.67717464      -0.06405829       0.23892703      -0.73009694       0.35045016      -1.14589792
H       16.95563831      22.29835125      13.88393469      -0.18635347      -0.46403977       0.56458880       0.68605467      -0.42425281      -1.44298422
H       16.82216881      22.53732024      14.56325277       0.11820721       0.68273936       0.04265294      -0.07471320       0.71954388       1.43669493
H        5.36856323      11.71433715      12.98323963      -0.07966422       0.49934041      -0.32879536      -1.52683411       1.25599098       1.79550174
H        4.94139602      11.98591500      13.69413637      -0.57288063      -0.19175496       0.71021093       0.59269956      -1.25417465      -1.78058409
H        9.82362573       5.77483263       7.13149144       0.21450751       0.14896920       0.16541397       1.06453672       2.43746015      -1.30631490
H        9.63739188       5.23561518       7.43152393      -0.19772083      -0.28658637      -0.02047625      -1.30906782      -2.20034810       1.29469187
H        3.44272053      11.62782032      13.33819938      -0.03103847       0.22609353       0.53071061      -0.14058571      -0.62062187       0.19033096
H        3.15545280      12.23888154      12.95258840       0.19254769       0.14559309      -0.20634964       0.04365732       0.51007352       0.01958556
H        7.70462741       3.13720570      14.39381326       0.51724859      -0.55712017      -0.57246608       0.76331363       2.84109906      -1.04939411
H        7.94180863       3.98978323      14.15818875       0.04749391       0.00803304       0.58137648      -0.34526809      -2.95616006       0.80200581
H        5.23746450      10.73464688      16.43073790      -0.61096798       0.13800717       0.24755503       0.88553916       1.07506021      -0.48895294
H        5.71270547      11.40199911      16.43170233       0.75159273      -0.49071843       0.54619546      -0.41413125      -1.49562051      -0.03310518
H       11.08256822      13.44977568      14.71547347       1.17671452       0.01880926       0.33375317       0.28302187       0.06251154      -0.14891696
H       11.03051318      12.79030145      15.10051558      -1.08598324      -0.01329103      -0.33843535      -0.60618224      -0.02318741       0.71563607
H        9.29872111       0.47840689       0.88406046       0.46647860       0.73845646       0.52811476      -0.17587564       0.10498523      -0.27748678
H        8.60327827       0.86575386       1.04205772      -0.10309788      -0.41776445       0.50871920       0.51944430       0.02436013       0.03658474
H       19.97200161       3.49828578       3.20759348      -0.46389907      -0.32370693       0.41711679      -0.55294965       1.22265413       1.48490429
H       20.23072761       3.08597525       2.65209732      -0.39402684       1.04244713      -0.12693151       0.31390687      -0.46417945      -1.12368801
H        9.86746683       4.05495488      12.08154931      -0.10171402      -1.70649691      -0.20748515      -0.61108704      -0.68552310       0.83887519
H        9.24778965       4.25289184      12.59470212      -0.20452370      -0.03279441      -0.10199685       0.34542158      -0.32164792      -1.03302757
H       13.71120369      18.50479536      11.22495816      -0.49599461       0.66263136      -0.52602006       0.58518436       0.18285386      -0.18449763
H       13.22817805      18.95286275      11.54291583       0.09332066       0.39338842       0.46132783      -0.88838174       0.19939784       1.03557810
H       14.97582804      22.49593204      20.76979432       0.83209366       0.17938765      -0.03302760      -0.00227057      -0.69490941       0.68988493
H       14.78821005      21.90835556      21.27188609       0.35189330      -0.87681124      -0.22513573       0.01385240       0.27487113      -0.68849662
H       22.45981020       7.43623818       0.31045585       0.87109652      -0.45146370      -0.60660175       1.30854285       0.67202973       1.44728184
H       22.04278425       6.99107629      -0.11889257      -0.96019480       0.59836928       0.60414018      -2.23909354       0.06534511      -1.48526219
H       10.90911494      22.34168078      15.24923431      -0.23467865       0.29794766      -0.19545238      -0.27023289      -0.00852594      -0.04768809
H       11.08876581      21.93418202      14.57658076       0.29632895      -0.80626873       0.52319049       0.35777659      -0.19006005       0.45197658
H       17.89647273       5.87669515      22.37040033      -0.05300198       0.25463361      -0.02142530      -0.07287312      -0.61845567       3.30792628
H       17.27064142       5.69781231      22.96022457      -0.59154682      -0.83341303       0.60588728      -0.94264260      -0.27013807       0.02769724
H        8.63990148      13.16942123      13.28649923       0.08049811      -0.39125638       0.60436008      -0.81007863       0.90596587       0.01476194
H        8.03804724      13.67795395      13.03029524      -0.60124474      -0.62861674       0.25507170       0.72013866      -1.20794976      -0.38535837
H       16.17337416      10.90671929      14.40752375       1.08985339       0.23338662      -0.32456051       0.55575143      -4.24665917       0.48749170
H       16.23929056       9.95515739      14.38994620       0.03170160       0.08137507      -1.60692034       0.02008865       3.68249024      -1.27705619
H       10.36815616      14.42533516      10.88447287      -0.16279181       0.08670181      -0.10893943      -0.45854141      -0.37394359      -1.33978836
H       10.12683802      14.51148294      10.09305900       0.96393845       1.40663752      -0.43340666       0.79484785       0.26736765       1.54559648
H       11.72943968       8.17012258       5.35545959      -0.01966766      -0.16723388      -0.18737730      -0.42300334       0.51065310      -0.50847124
H       11.09416666       8.28169109       4.89425526       0.15901109       0.22320588      -0.20272110       0.66368745      -0.43792789       1.20456644
H       22.27880727      -0.46242494       2.80096827       0.32310131      -0.51277182       0.09418690       1.14700756       0.12049273      -0.10540148
H       22.38477673      -0.09154615       3.48636731      -0.04569097      -0.62923059      -0.28065001      -0.42180762      -1.95986685       0.43446198
H        0.49144874      22.62970261       6.65629914       0.55188181       0.43510358      -0.12586064       0.03961420       1.10841549       0.22966850
H        0.50550693      21.85232537       6.57305451      -0.24757442      -0.21051838       1.72913894      -0.39750371      -0.55227655       0.60584768
H       11.69877742      20.53741714      10.78470241      -0.77609861      -0.16259742      -0.54429273       1.24421580       1.07378449      -0.48298186
H       11.25012010      20.11483637      11.07327649       0.47861694       0.00558565       0.22304436      -0.56208769       0.06833133       1.75907272
H        1.41049634      18.38449173      11.05258177      -0.36365242      -0.28012264       0.23759685       0.19663133       0.56916399       0.40831845
H        1.98547611      18.22287635      11.58546454       0.10684241      -0.64078093       0.05880288       0.23289060      -0.39652309      -0.34370846
H       20.84275971      12.96061626      12.38213288       0.28661969      -0.50694957      -0.00169548      -2.25534864       2.68630033       2.86346371
H       21.20939472      12.57884751      12.09038340      -0.03034222      -0.07733629      -0.19127410       2.25034323      -2.49697053      -2.65525637
H       15.35691925       6.34894352      13.81700465      -0.16572365       0.95187345       0.29091655       1.20283921       0.80891920       0.54201113
H       14.65221636       6.19257838      13.90897276       0.36332734      -0.30979933      -0.49973800      -0.95096551      -0.84332385       0.17408239
H       10.06854946      16.90689823      11.29513192      -0.48124488      -0.37056010       0.14785245      -1.04270552       0.00740157       1.20706581
H        9.81104121      16.57159783      10.65594848       0.69708548      -0.59440150      -0.71559448       0.13277192      -0.71037945      -0.07993964
H        0.64963379      18.25917427      18.94617973       0.08109872       0.62986990      -0.07370755      -0.08849057      -2.49676991      -0.75601945
H        0.53301706      17.42586542      18.83346285       1.10455184       0.24989666       0.27060032       0.91366576       1.55547724      -0.43411489
H        6.12196535       9.87096274      11.64758968      -0.03518818       0.67480469      -0.94447452      -1.45322177       2.20528349       3.99444314
H        6.16366675       9.53286870      11.14467878       0.83747166      -0.17448363       0.15260905       0.59915089      -2.74006136      -3.42679474
H       -0.36575548      15.07860622      11.93308962      -0.84148713       0.25665435      -0.77903562       0.52346009       1.78750297      -0.66505653
H       -0.00418044      15.79565031      12.04734681      -0.54383395      -0.16173254       0.47312889      -1.08687752      -1.38383904       0.53366072
H       20.78299682       1.10512774      14.31550255       0.60461704       0.12342286       0.60506036       1.38715049      -0.86920364       0.06950600
H       21.42649670       0.65690458      14.57835168      -0.11138508      -0.01564356      -0.68697854      -1.44566891       0.65269724      -0.26947920
H       19.53608553      12.84537430      15.31973539       0.13389871       0.12834295       0.42970110      -1.08036650       1.35637467      -2.02461379
H       19.16516995      13.26319879      14.66453158      -0.40797317       0.18288808       0.08181936       1.22655366      -0.63645506       2.27442255
H       21.79987051      12.34068012       8.44160508      -0.26709347      -0.45222662       0.44770776      -1.31114242      -0.82707780      -0.40472927
H       22.39694207      12.73288185       8.49610593       0.42071022      -0.33769542      -0.13667935       0.80045207       1.27429660       0.20507859
H        1.59625553      14.33944349      11.16681430      -0.23020901       0.52447696      -0.19193522       0.97574901      -0.38971467      -0.31479292
H        2.19481273      14.71683223      10.76713929       0.16915764       0.46548231      -0.06802374      -0.47793268      -0.29499753      -0.35608039
H       13.04051721      13.94300128      13.42868240       0.31560858       0.22534702      -0.50024563      -2.58605255      -2.68473343       0.51666278
H       13.43145792      14.40453861      13.19459811       0.83654509       0.26452378       0.63684839       2.60728068       2.87830971      -1.13452801
H       14.03584151       0.81937597      14.17124354      -0.68510637      -0.43803848      -0.69297760       0.16743335      -0.68086163      -0.45764638
H       14.22477637       1.54254995      14.07144118       1.06661297      -0.26029391       0.61108852       0.34707361       0.73038202       0.69833465
H       19.15511990      10.93388968      12.17846678       0.49939292      -0.69709159       0.16783067      -0.47549920       0.99058063      -0.19305241
H       18.68718512      10.34365444      12.21478895      -0.21182853      -0.39570508       0.35809292      -0.07276627      -1.23906912      -0.18021771
H        3.72309945      14.43020691      14.27332614       0.79624098      -0.29872561      -0.03536229       0.08149544       0.69614589       0.01264213
H        3.15745346      15.00601501      14.23782701      -0.32298609       0.04067439       0.42608110       0.30288712       0.31810845       0.49653166
H        0.08595817       6.38203438      15.10356013      -0.47913582      -0.21734357      -0.54501033       0.40742277      -0.51863677      -0.58308235
H       -0.41129754       6.92511227      15.29561856      -0.30716354       0.37080189      -0.11518267      -0.29312963       0.42564196       0.31553894
H        6.54239287       9.46264292      21.80789358      -0.33389672       0.47930161      -0.03053104       1.09793542      -1.41486569       0.34727993
H        7.05792003       9.17293432      22.41946411       0.20050981      -0.03648261       0.10699015      -1.07125902       1.40131129      -0.95403927
H       12.28492275      -0.17383820      12.77244276      -0.51446479      -0.60345271       0.79309621       0.52423784       0.89654566      -2.54919754
H       12.40882262       0.19565803      12.00241005      -0.11925608       0.01987375       0.66578260      -0.47521980      -0.83078229       2.05321644
H       20.70437711       9.23613290      13.94955789       1.04375176       0.19690672       0.38731104      -0.41851310       1.76369251       1.01612207
H       20.44294544       9.91349783      14.43372354       0.02048462       0.95416690       0.48900435       0.66772806      -1.54691930      -1.23008387
H        8.81149956      10.76051387       8.37523963       0.35348656       0.43618065       0.30160077      -1.78250863       0.98444419       1.17469535
H        8.14381209      11.01983774       8.79967193       0.40483216      -0.30009628       0.19870447       1.50233751      -0.74844925      -0.35715203
H        8.83114025      11.00504153      13.97259636       1.11360687       1.62091252       0.14733457      -0.18930186      -0.18694847       1.14755339
H        8.25903599      10.71198484      14.58999428       0.53454831       0.16043406       0.07348324       1.65147433       0.76985240      -2.19576133
H       -0.26686730      21.65718186      16.29155230      -0.76902807      -0.23354478       0.72164400       0.21747834      -0.97454298       0.12087853
H       -0.25787228      22.37158928      16.28848648      -0.65581774      -0.16924978      -0.13201925      -0.29529901       1.46255433      -0.37469739
H       16.92256776      13.36476863      10.14877620      -0.12675120      -0.53470777      -0.53058466       0.22858825       1.34509983      -0.17338866
H       17.05956588      14.05616960       9.68256646      -0.16370763       0.51481822       0.11118743      -0.44638341      -1.40443758       0.46333982
H       12.64445890      11.74891449      12.21783170      -0.15582457       0.54343362       0.22929286       1.40462571       0.31913249      -0.60552286
H       11.92393631      11.68205103      12.24821937      -0.60471370      -0.14792595      -0.34807795      -1.88957913      -0.60116664       0.42203424
H        6.54520362       6.35193185      11.11373763       0.07023416       0.77399930      -0.00820892      -0.76763559      -2.04719925       2.46029954
H        6.75853622       6.81002804      10.71045914      -0.51779598       0.09477867       0.44964530       0.09973162       2.74530663      -2.66622682
O       12.26965630       0.85766646      17.10560294       1.56451861       0.35453773       1.41812414      -5.69274982       0.73664292       1.48468303
O       11.15215698       0.92200219      17.79463728       0.69806552       1.76884349      -4.06682535       6.65855601      -0.36221558      -2.20155671
O        1.23327625      21.94228767       8.03215590       3.83874803       0.22235605      -1.99709462      -4.79553944       1.54866919       4.12914052
O       -0.19699624      22.16514147       8.94136153      -5.80097364       1.50552395       3.33500523       4.96156663      -0.83966873      -4.45517951
O        9.58512427      11.30020091      12.09051453      -0.44813090      -4.19458789      -0.09823557       2.87673657      -0.06442672       5.99587025
O       10.07955337      11.46220186      13.27506011      -0.30203444      -0.33818131       0.32073558      -4.00071585       0.92321867      -4.98639746
O       14.70279677      20.00300192      -0.10742610       1.21957178       1.34999527      -0.10051392       2.53695555      -4.45426250       2.94410111
O       15.04531158      19.02492340       0.84463304      -2.18342734      -2.43970372      -2.17507692      -1.82514361       3.90971926      -4.29831253
O       13.51275137      14.22314059      16.37840892      -2.31491962      -0.18555059      -1.91312019      -3.00917060       1.96561427       0.72745838
O       12.68170411      14.80715804      17.13962581       0.50385047       1.72690991      -0.12909640       2.68354574      -0.19540398      -1.49092733
O       10.63624794      21.66504596      21.03911681      -0.13367234       2.87264001       1.48493385       2.85145935       3.15108979       4.00327951
O       11.04273652      22.48161486      22.04865734       1.99650681      -0.02541497       2.72880860      -2.20045047      -2.10704120      -3.81989065
O        9.72895430       8.64204200      11.64771374       0.87183382      -0.00072740      -3.77648689      -0.37533524       5.29279225      -4.87863921
O        9.57726761       9.55645706      10.72178014       0.59695316      -1.98475595      -0.98632721       0.48763125      -4.92448973       4.90624652
O       18.14638937      17.52295697       5.67012947       2.92095959       1.35032723       3.47284525      -3.29352232       0.66562565      -8.18222896
O       17.73035584      17.63076561       3.96207640      -0.91153669       1.93671179      -5.98909883       3.04245361      -0.81153281       8.87769985
O        8.93452426       4.74093660      21.87651138      -0.54410473      -1.97079335       0.47561110      -1.88997986      -9.26579090       0.93933902
O        8.50446101       3.38673463      21.97387239      -1.55127318      -1.71681225      -1.82648538       2.32786752       9.05743478      -1.27978731
O       21.99589820      13.98284124       1.40888276      -2.22132015      -3.60910035       3.58936061       2.25018608       4.11287505      -8.60825710
O       22.49111196      14.75501121      -0.09867125       0.60744551       3.37857591      -3.51080064      -2.23950885      -4.33527824       8.16936440
O       17.14820852       7.59318905       4.08638585      -2.20229260      -1.20401453       0.55055688     -36.23014968       5.54758485      -2.70084905
O       15.39409899       7.72539082       4.01755068       1.44710737      -2.08438963       2.64927868      35.45753228      -3.93102813       2.79585359
O        5.19162736      14.32527540      21.88953928      -2.54039050       2.76274351       1.84090228       8.52610695      -1.72469376      -2.08196558
O        6.85090110      13.90405901      21.55778198       5.88010938      -0.61430980       0.10515496      -8.84283107       1.49093611       1.59894075
O       12.00064661      17.02011479      15.49700483      -1.47029389       1.80426284      -1.03786468      -2.89273026      -0.71462373      -1.83505684
O       11.03926506      16.34348900      14.97041073      -1.52672293      -0.51042009       2.39129819       2.94489021       2.50367101       3.48948417
O       19.00621812       3.62451357      10.73850899      -4.77191048       0.98969351      -1.13599996       5.61087907      -4.19473861       2.05959414
O       20.28597089       2.50591321      10.98792372       6.06910646      -4.90658612      -0.32585734      -6.45550432       4.34221316      -1.68971675
O       22.17202654      12.75509225      20.73777801       1.77339100       0.97549077      -6.96765376       1.70841859      -1.22605211       7.15710033
O       22.55204597      12.35190499      22.38369320       2.55263716      -2.03891830       5.20351507      -0.99617087       1.53086166      -6.51208908
O        5.95330754      14.57029592      13.79174687       0.13318915       0.17531150      -0.06373382      -1.55721063       0.51266768       3.13805681
O        5.76196336      14.78960878      15.03366099      -1.64371420      -0.91663878      -0.65849653       0.96602292      -0.88150444      -2.83235651
O        5.92005260      22.00255648       0.46474519       0.21383581      -1.37905525      -0.49555646      -1.85080718       1.25501797       4.87214381
O        5.50176271      22.06233618       1.73289768      -0.15389010      -1.47267254       2.03443615       1.51795675      -1.15582432      -4.67055605
O       18.74416429       8.06005437      11.46988259      -0.23250678       2.69730265       1.02563902      -1.03227968       2.01662727      -0.03729099
O       17.85032153       8.93869219      11.52863374      -1.36740941       1.71418834      -0.57728228       1.06195246      -3.06250061       1.33770289
O        7.82470682      16.83861443       1.12031831       0.76258598      -2.85526799      -5.29523468       0.71608351       3.63001197       8.62726244
O        7.87610296      17.02463735       2.87751787       1.98300424      -1.30633516       5.32563474      -0.59035678      -3.98544744     -10.24490756
O       15.71742216       0.47895176       8.74546251       0.08150443       3.20141362      -2.29340268      -5.36930462      -2.03823477       2.11549528
O       14.51428876       0.03490226       9.05721744       1.45966896       1.24043218       3.34086313       5.56398416       3.27595398      -2.50818684
O       10.23184773      11.57757843      15.99919187      -0.71221040       1.78835738      -3.02269749       1.96366473      -3.16508245      -2.06040879
O       10.82663861      10.50716242      15.62125229       0.50352599      -0.38792457       1.24921539      -2.02304394       3.89002214       2.59908672
O       15.94163251      12.90355138      14.11050903      -1.78844651      -2.75506136      -0.13797190      -0.92650685       1.59490127       3.96523060
O       15.65745434      13.34282239      15.29288684      -0.91096750       0.78259054       2.13705573       1.24926488      -1.06000714      -2.83023047
O       15.30862549       4.25116927      19.21660822      -2.55326015       3.73264502       1.72785214       3.08559244      -4.78231924      -6.59495773
O       15.94610480       3.22728307      17.96263872      -0.43264972      -6.28085655      -2.60228942      -3.46075863       4.81973261       6.89475202
O       16.08419648       7.67523331      12.83413419       0.11362714       2.25075434      -0.47394681       0.58567854      -5.38029480      -5.29648890
O       15.90146274       6.70087966      11.96220809      -1.66881332       1.34024143       1.31819170       0.03441019       5.10111513       3.95329532
O        7.17013822      14.70377471      17.76453545      -1.10737240       0.01952689      -4.50315795     -11.29952237      21.82736251     -17.99112056
O        6.55537113      15.88888978      16.80219077       2.99594773      -1.27487122       1.03345181      10.23805932     -22.60969763      18.19796798
O       15.61574458       4.44058458      15.72245246      -2.38708767      -0.55638412      -1.12553783      -1.11736082       1.34235323       1.00263088
O       14.90171350       4.83829611      16.68242328      -1.70072383      -0.63737432       2.15389029       1.61286231      -1.29042803      -0.99606749
O       13.79632595       9.02789957      14.79306373      -0.95304202      -0.55472392      -2.15747667      -0.16535484      -1.12713543      -0.87551952
O       13.39165915       9.98263102      15.43467048      -1.23693516       0.78382576      -1.00204243      -0.32674504       1.12531460       1.06526360
O        7.66245141      10.55947871      16.58439481      -0.35531798      -1.16643194       0.33142064       5.37937004      -4.12328252      -0.18644781
O        8.60822395       9.61607252      16.49573766      -0.73255484       2.12702156      -2.36744512      -6.14140464       4.67678013       0.89811651
O       15.67549529      20.31450158       5.23028854       2.75185154       2.32414839      -3.06946140      -2.62935856      -0.45902699       4.85489549
O       14.85497284      19.95182244       6.62732809      -1.54215685      -0.28795814       6.36284381       2.85763689       0.23448585      -4.95582155
O       21.92425320      17.13453937      21.13207379      -0.73907461       2.34510219      -4.84491970       0.85089897       2.66954288      -2.26475338
O       22.26555672      16.53385924      22.43120204      -0.68319217      -4.64983933       2.54664748      -0.07667095      -3.24660423       1.73902052
O       16.48595691       7.97763581      15.55493994      -0.00792605       4.28523720      -0.76214804       1.51287542      -1.84128504       0.86206756
O       17.68356490       7.57593403      15.60692962      -0.40675783      -0.99498614       0.42959369      -2.03470765       0.06992025      -0.41734539
O        5.52608201      13.10132659       7.69025602       0.31630629       2.16042496      -2.96402941       3.45065392       2.51816128      -1.57794952
O        6.28236083      14.02437192       8.13326426       1.44692472      -0.04432683       0.10766022      -3.92155039      -2.96581158      -0.24524234
O        7.13481243       8.44107260      18.16747568      -1.10342377       1.28144686       2.70908212       0.09128797      -1.86582852      -0.45856861
O        7.31586246       8.33279038      19.41240896       2.45979676       1.83507277       0.31688165       0.24066288       1.31225876       0.03000961
O        4.03037204       7.00378281       8.57511339       2.23289706      -0.04763282      -2.69661526      -2.53558190      -3.01699950       1.36432502
O        3.40462000       6.22169278       9.40791421       0.08818529      -0.80218183      -0.70207203       1.99269476       3.04208444      -3.81302680
O       22.28899277      10.13328030      -0.11615294       2.15932821       1.15444438      -6.08289736      -5.05001252       2.53122632       6.91648830
O       21.01036074      10.11482779       1.03315584      -4.40385462       0.68657536       2.56117695       5.87938714      -2.84944089      -3.36493931
O       12.98699288      17.05610695      13.06392862       3.03885765       3.04676739      -0.19096497       3.82917846       0.31279325       1.79387122
O       14.14008213      17.03931858      13.67639650      -0.96745173      -0.13400471      -1.63411714      -3.73145769      -0.16935758      -1.47868720
O       10.46186179      12.88094346       7.53503238      -0.95146439       0.55962842       0.05757056      -2.70655810       0.49884241      -4.13862024
O        9.59386131      13.13606055       6.57542328       2.05539446      -1.85540152      -1.71977682       3.28789706      -0.44434044       4.27399610
O        6.48544195       9.19149994       9.08470120       0.20713503       1.53771181       0.47681550      -3.81012190      -0.58050442      -2.04179973
O        5.44630904       8.70276813       8.52050741       0.50446839      -2.10208436       2.04253023       3.09843460       0.95917630       1.30281908
O       17.40452492      16.20500979       8.20788249      -0.00856273       0.35291821      -0.56679518       4.45048939      -4.94384150      -5.16672565
O       17.00400087      17.16317793       9.06485728       0.19201518       2.63097959       0.85874206      -3.71171484       5.12466911       5.41434548
O        5.45433887       4.98028249       0.08763147      -2.65421566       1.30099455       1.07736718       7.15066550       3.70249164       6.07863709
O        6.28096778       5.45383392       1.06203822       5.23548807      -1.01602505       1.05704124      -6.51240337      -4.09421578      -5.79396522
O       12.51101445       5.47365030       4.55041323      -1.40740880       0.42247224      -1.30081618       0.50698506      -1.95482084       3.98470408
O       12.97148320       4.67619795       5.46749397       0.64823460       2.17723112      -1.33470843      -0.70678543       1.88236367      -3.87251271
O       10.94054426       5.17975081      10.12011008      -0.09346940       2.85812528      -0.17719208       1.47566869       5.31290755      -5.62340415
O       11.27871054       5.84901715       9.03748625      -0.93496430      -1.73018442       2.55875177      -1.83982586      -4.54226650       4.33799593
O        6.51027374      12.43927181       9.75881013      -0.29281087      -1.03209852       1.43321677       1.88139793       0.42636612       2.08313493
O        7.61445753      12.72540442      10.29809148       1.42358578      -0.81376331      -0.26395111      -2.08705131      -0.44432025      -1.14328230
O        7.52492075      11.97554446       5.94339150      -1.23855677       1.17687378      -1.35126160      -1.81166871       1.13818882       0.06545727
O        6.52819491      12.64787085       5.57606749      -1.25376654       3.88321111       0.23761021       1.54861815       0.53088887       0.31845713
O        8.40170126       0.65113004       8.95353764      -1.09792599       0.01754597       4.91944437       0.00366611       0.75118905      -8.84656122
O        8.48188781       0.74991531       7.19246762       0.59330680       1.66690490      -5.47717598       0.25555210      -0.49908267       8.87813474
O       22.01270440      14.57206226      15.80783881      -0.88805774      -2.35191874       2.33703243      -1.11288281      -3.66639481       2.00220413
O       21.75492056      13.55548420      16.56025409      -4.03066973      -0.20850440       0.75778528       0.83315200       1.76928599      -1.75564010
O       10.76466001      16.10734724       8.98255466       0.13947463       1.44552127      -0.94710360       5.38452112      -1.33866189       1.50276453
O       12.02409239      15.77661028       9.10792461      -0.82650673      -0.86958671       3.99981408      -5.30946840       1.23706028      -1.06663657
O       12.87523608      21.65725076       1.28114225       0.47727426      -2.72319066       0.23902407       1.00247395       1.63156842       6.89851398
O       13.08117567      21.98781862       2.60562282       0.78886741       1.26143828      -1.27067631      -0.40306954      -2.03341191      -5.62142883
O        9.10489227      -0.07072267      13.75561656       0.90687914      -1.85849505       0.68391452      -0.38461462       0.69114659       0.75641995
O        8.96043072       1.07813503      13.31611146       1.69376000      -0.74340634      -1.16146661       0.40672145      -0.50611092      -0.11978858
O       11.96106779       7.55233893      14.82520966       0.60716520      -2.50566303      -1.16066695       0.79133778      -0.68141479       1.58260101
O       12.42254303       6.98771287      15.84069514      -0.45019722      -0.79656595       1.74780188      -0.25897303       0.77023150      -1.73500021
200
Lattice="22.43773069742029 0.0 0.0 0.0 22.43773069742029 0.0 0.0 0.0 22.43773069742029" Properties=species:S:1:pos:R:3:momenta:R:3:forces:R:3 connectivity="_JSON [[0, 1, null], [2, 3, null], [4, 5, null], [6, 7, null], [8, 9, null], [10, 11, null], [12, 13, null], [14, 15, null], [16, 17, null], [18, 19, null], [20, 21, null], [22, 23, null], [24, 25, null], [26, 27, null], [28, 29, null], [30, 31, null], [32, 33, null], [34, 35, null], [36, 37, null], [38, 39, null], [40, 41, null], [42, 43, null], [44, 45, null], [46, 47, null], [48, 49, null], [50, 51, null], [52, 53, null], [54, 55, null], [56, 57, null], [58, 59, null], [60, 61, null], [62, 63, null], [64, 65, null], [66, 67, null], [68, 69, null], [70, 71, null], [72, 73, null], [74, 75, null], [76, 77, null], [78, 79, null], [80, 81, null], [82, 83, null], [84, 85, null], [86, 87, null], [88, 89, null], [90, 91, null], [92, 93, null], [94, 95, null], [96, 97, null], [98, 99, null], [100, 101, null], [102, 103, null], [104, 105, null], [106, 107, null], [108, 109, null], [110, 111, null], [112, 113, null], [114, 115, null], [116, 117, null], [118, 119, null], [120, 121, null], [122, 123, null], [124, 125, null], [126, 127, null], [128, 129, null], [130, 131, null], [132, 133, null], [134, 135, null], [136, 137, null], [138, 139, null], [140, 141, null], [142, 143, null], [144, 145, null], [146, 147, null], [148, 149, null], [150, 151, null], [152, 153, null], [154, 155, null], [156, 157, null], [158, 159, null], [160, 161, null], [162, 163, null], [164, 165, null], [166, 167, null], [168, 169, null], [170, 171, null], [172, 173, null], [174, 175, null], [176, 177, null], [178, 179, null], [180, 181, null], [182, 183, null], [184, 185, null], [186, 187, null], [188, 189, null], [190, 191, null], [192, 193, null], [194, 195, null], [196, 197, null], [198, 199, null]]" energy=-105.5958887907751 pbc="T T T"
H        0.05938940       6.50095233      13.06766114       0.07309212       0.37827189      -0.37981982      -0.52954325      -1.04098014      -0.17957825
H       -0.35965820       5.80824459      12.88448078      -0.66949176      -0.36441253       0.24839956       0.71439085       0.97405303       0.31256875
H       16.41736965       7.87236712      22.09455022      -0.03395997      -0.38464521       0.15890368      -0.29423253       0.89128549      -2.18787365
H       16.30956683       8.19773465      21.29628985      -0.63278968       0.42409518       0.15412091       0.29272454      -0.89095213       2.18480139
H        5.81920116      14.77374779      10.38433862       0.50540195      -0.29352129       0.18889656       1.34827978      -0.46274988       2.14549914
H        6.28992803      14.62386613      11.10673958       0.38931165       0.35573858      -0.23204491      -1.38900673       0.38608913      -2.03285507
H       16.92492811      22.15957317      13.99027094      -0.11522097      -0.60369508       0.37192908       0.32506354       0.93057486       0.60364482
H       16.84560904      22.70708797      14.60286269       0.05332172       0.64513845       0.22005401       0.30711398      -0.60418621      -0.53874034
H        5.30856771      11.87120910      13.00947901      -0.54914560       0.76801780       0.54563663      -2.26441255       0.55458261       3.24572055
H        4.84524005      11.90852026      13.81169187      -0.12700851      -0.35607460       0.09420969       1.28881644      -0.60335202      -3.26627232
H        9.87367370       5.83902688       7.17887468       0.23155811       0.26099343       0.27590439      -0.38880928      -1.14939600       0.67559797
H        9.55248769       5.13095519       7.41559172      -0.39060923      -0.36045182      -0.13442280       0.19073435       1.47576803      -0.64502229
H        3.38436102      11.68490488      13.44788829      -0.47018858       0.24992600       0.29754066      -0.34936501       0.03251197      -0.75428169
H        3.22085912      12.28406000      12.90901318       0.30862004       0.15692778      -0.11256590       0.20239003      -0.24317826       0.98283310
H        7.84431344       3.06825404      14.23596298       0.59087567      -0.15052459      -0.66888313      -0.15761788       1.07833756       0.02337468
H        7.94589579       3.88662410      14.33434612       0.10943631      -0.67999731       0.73026791       0.61154094      -1.14016642      -0.25809165
H        5.14029541      10.79867005      16.47664013      -0.21174347       0.38587695       0.08783713       2.18774471       1.05168547      -0.08284082
H        5.86566865      11.23577229      16.54906733       0.47137537      -0.92006668       0.38880653      -1.85569573      -1.36352242      -0.47517538
H       11.36869288      13.44643749      14.81139189       0.98401865      -0.10857920       0.51836346      -2.29981555      -3.15091768       0.96793002
H       10.76469532      12.78775826      15.03199179      -0.98598204       0.21643012      -0.11745810       1.92004062       3.06764757      -0.48715231
H        9.43251100       0.64917358       0.99157715       0.40376268       0.63119255       0.39771285      -1.70062116       0.13028758      -0.13216309
H        8.59686980       0.77236429       1.15334458       0.10258447      -0.37032300       0.37224754       2.00954269       0.09443818      -0.03737782
H       19.86231448       3.44560679       3.36698942      -0.47609203      -0.16961523       0.73827517       0.37892174       0.41694408      -1.23010508
H       20.15901966       3.32016596       2.58113751      -0.19288044       0.86830115      -0.29869527      -0.57124236       0.24227944       1.55712014
H        9.82467771       3.63820411      12.08953879      -0.39476747      -1.65952406       0.19699059      -1.94734717       1.34546469       1.75439152
H        9.23087091       4.19740743      12.51147273       0.08713869      -0.36833126      -0.53497887       1.66416391      -2.29337237      -1.90645373
H       13.61378972      18.67832953      11.08947777      -0.31719945       0.77676510      -0.56566702      -0.12622681       1.30256578       0.64106394
H       13.24497054      19.06511556      11.66800648      -0.00100872       0.47749471       0.51884738      -0.22202903      -0.06840597      -0.21971669
H       15.13379167      22.47859789      20.80802421       0.43459133      -0.38378352       0.44112009      -0.73745121      -2.60444236       1.45873257
H       14.89689443      21.72990151      21.19022138       0.54922219      -0.42397103      -0.48681280       0.81362924       2.26050548      -1.58338938
H       22.69688963       7.32284985       0.18882990       0.90345265      -0.54507737      -0.49152314      -3.59998662      -0.80354267       0.05779892
H       21.76804282       7.16901565      -0.00729983      -1.13577371       0.86113772       0.35984198       2.66343078       1.58307417      -0.20852307
H       10.85850530      22.40022949      15.20399175      -0.16301028       0.10806010      -0.25964014       0.73356325      -1.72885185      -0.89326233
H       11.18097883      21.74585007      14.70653671       0.39451722      -0.69630425       0.61095425      -0.53353199       1.64314786       1.29366700
H       17.82406015       5.91677585      22.49437267      -0.65222819      -0.04217185       1.10375941      -3.77789290      -2.05613006       4.69403188
H       17.12945675       5.51151869      23.08141207      -0.41671535      -0.67037185       0.23309374       1.85628777       0.53550076      -2.56162358
H        8.61354992      13.10636414      13.41157879      -0.33743449      -0.09746699       0.48717713      -1.62847983       0.81486120      -0.25620229
H        7.91397027      13.46874015      13.10195883      -0.20356750      -1.02564572       0.32088489       1.53207536      -0.96713224      -0.09227271
H       16.46082501      10.84878292      14.34599417       1.18095845      -0.63496866      -0.36445731      -0.79032873      -2.54373676      -1.28545954
H       16.24962268      10.04972413      13.98248386       0.13459389       0.66338398      -1.63355182       1.29391449       1.95725780       0.45278206
H       10.32592951      14.45665143      10.81046199      -0.20596068       0.15445931      -0.54611898       0.07618636       0.56465030      -2.08812265
H       10.39243970      14.84286340      10.04845112       1.18306305       1.31999800       0.08327108       0.27228220      -0.59365145       2.36298939
H       11.73548363       8.15293326       5.29511232       0.10619839       0.01682624      -0.30995861       0.80011445       0.44079291       0.44767827
H       11.15629072       8.33866916       4.88092616       0.21825695       0.20363371       0.05222613      -0.23029139       0.12331610       0.42312893
H       22.38876343      -0.56914372       2.80382366       0.51274775      -0.46311985      -0.13785753       0.91989089      -0.87124846      -1.50071481
H       22.35959043      -0.27591592       3.44860924      -0.14297193      -0.84408061      -0.03569695      -0.34257709      -0.63322706       1.87416474
H        0.62619094      22.73501499       6.65459870       0.49985627       0.17106417       0.15466657      -0.79570878      -3.86752225       2.28709110
H        0.44233872      21.85431693       7.00824664      -0.17869581       0.42155956       1.74506725       0.31846346       4.10489097      -1.54534578
H       11.54721904      20.53528101      10.62298390      -0.51926281       0.12489694      -0.80261539       0.03663458       0.54861652      -0.57758739
H       11.35899622      20.11574551      11.18423973       0.49789595      -0.02498977       0.70353503       0.94214307       0.82351608       1.44301609
H        1.32769884      18.32613875      11.15007995      -0.18681813      -0.21339048       0.60059713       1.49509853      -0.01752543       1.22861885
H        2.00058917      18.05355120      11.60453912      -0.01298927      -0.77841812      -0.00242521      -0.97986604       0.31780214      -1.07062014
H       20.82350283      12.90410444      12.46341709      -0.22293516      -0.11008367       0.57016774       0.36880777      -0.00502228       0.83533708
H       21.24533120      12.48643724      11.97741147       0.23373329      -0.41016937      -0.66954096      -0.52043458       0.26846651      -0.64363576
H       15.33728891       6.62585105      13.88855126      -0.02576661       1.34697333       0.30889865      -0.58361508       0.02239914       0.35073832
H       14.73873749       6.08494758      13.78176671       0.34304492      -0.56117722      -0.56704106       1.47338232       0.37350608       0.05877902
H        9.89602369      16.80798486      11.33204935      -0.89101896      -0.54660378       0.00395328      -1.07649858      -1.75621572      -2.02175216
H        9.95585071      16.41775267      10.51507291       0.55950977      -0.54089069      -0.26343333       0.10766991       1.05251915       3.13680192
H        0.69092044      18.33947110      18.90479698       0.25220013       0.00366366      -0.27629456       0.32687508      -2.40516042      -1.22875168
H        0.81688232      17.52296090      18.89812166       1.22222182       0.64035909       0.22265959       0.36693975       1.16457303      -0.76004765
H        6.06341619      10.09209496      11.49686796      -0.37264304       0.95652976      -0.50519581      -0.25380276      -1.62051161      -0.61687501
H        6.40476489       9.43158744      11.10088525       1.07271776      -0.53871724      -0.25704645      -0.71171672       1.19366343       1.15014373
H       -0.56086240      15.21611180      11.71610146      -0.71980240       0.82633169      -1.01364791       0.09335338       1.23899909      -0.61387000
H       -0.17351626      15.72611822      12.18605529      -0.86935417      -0.43482785       0.69207994      -0.69743975      -0.85719885       0.46756929
H       20.92377749       1.14114278      14.45967463       0.37048060       0.26337637       0.58955888      -1.43063912       1.68720683      -0.19969980
H       21.40914825       0.67096578      14.41936790       0.12080886      -0.01475604      -0.57424157       1.39078885      -1.81640260      -0.03965425
H       19.55382026      12.92357282      15.34389492       0.03154302       0.50315607      -0.15767078      -0.42070007       0.50878286      -0.78823704
H       19.12065308      13.28677044      14.77812826      -0.04853876       0.16069046       0.70225033       0.69832144       0.11895614       0.93575396
H       21.70980464      12.23830893       8.54002522      -0.26619785      -0.32512820       0.37483406       2.03819609       1.03845383      -0.50075322
H       22.47301989      12.64196591       8.47006479       0.10820460      -0.43335079      -0.06665620      -2.51743336      -0.73943973       0.25999030
H        1.58699729      14.44880485      11.11285082       0.12843029       0.37853130      -0.25522999       1.42916190      -0.25270856      -0.43977970
H        2.21465079      14.84011318      10.73673589      -0.02862095       0.51604131      -0.24743980      -0.77940279      -0.49252245      -0.21954393
H       13.03895754      13.93141763      13.29325335      -0.08067931      -0.02307412      -0.64880653       1.80544493       1.88141342      -0.62072371
H       13.69962355      14.54764776      13.31037215       1.11627638       0.63521487       0.43762688      -1.78403979      -1.74560889      -0.02458992
H       13.89969475       0.71243671      13.99703614      -0.33114373      -0.16631177      -0.64799258       3.49425262       3.77874050       0.59835910
H       14.49171858       1.45224010      14.22545375       0.92965077      -0.76509190       0.67237873      -2.89235034      -3.77980774      -0.42267691
H       19.24989868      10.80485573      12.22231141       0.16799303      -0.47754830       0.15381835      -2.00177645      -0.44655914       0.11805641
H       18.65544792      10.23030119      12.28840663       0.00937196      -0.43990715       0.25054280       1.19311026       0.04091688      -0.07223922
H        3.85214768      14.40870672      14.27633189       0.21045633       0.22800952       0.11467632      -2.24709520       2.66963404       0.46240614
H        3.12699953      14.98874946      14.33940076       0.19950773      -0.36873647       0.46613045       2.95436357      -1.66908773       0.14896064
H       -0.04043160       6.32215381      14.96066041      -0.64341696      -0.15268406      -0.62008946      -1.02681834       1.56550844       0.33858523
H       -0.46854263       7.02064129      15.24991630      -0.24027257       0.31890814      -0.18957524       1.17627087      -1.90007516      -0.63379644
H        6.48183792       9.51091856      21.84338788      -0.07672459      -0.06907473       0.26234561       1.56877325      -1.59283914       0.91769040
H        7.07095974       9.21393338      22.39425019      -0.13149679       0.33420396      -0.32268524      -1.24270313       1.71521781      -0.56765950
H       12.17815979      -0.28246337      12.88181359      -0.38418910      -0.38628465       0.18318790       0.47105839       0.51838273      -1.14455599
H       12.35207254       0.17539786      12.24897489      -0.31641484      -0.15446751       1.20675821      -0.17940877      -0.01824238       0.51405952
H       20.93197489       9.38455110      14.09419692       0.79769161       0.99337200       0.80821017      -1.28764018       2.61412660       1.31075369
H       20.46562222      10.07686847      14.49956911       0.26810364       0.24826016       0.09147612       2.03939954      -2.58230190      -1.53988036
H        8.88438897      10.87790478       8.47976747       0.29357524       0.49634168       0.44148565       0.16840723       0.47069605      -0.01988300
H        8.24580204      10.93096068       8.85310676       0.37323692      -0.41142585       0.21479233      -0.31801653      -0.28866408       0.80379442
H        9.09879629      11.34060609      14.05058312       0.99315431       0.94286464       0.36934002      -0.97205064      -4.09319291       0.59708274
H        8.46435359      10.81214412      14.52767958       1.07534975       0.73699884      -0.49946816       1.15721422       3.30538588      -1.02614826
H       -0.44818022      21.61363812      16.48437899      -0.74886350      -0.08557695       0.92485724       0.30061047       0.84301261       0.09262688
H       -0.44527886      22.36597846      16.25885563      -0.79693869       0.02537136      -0.03960733      -0.29124916      -0.39100720      -0.31801723
H       16.88979365      13.29451076       9.99628459      -0.10050303      -0.00968941      -0.70653730       0.38161722       2.53104967      -0.00286899
H       17.00048706      14.12971541       9.72661970      -0.32627229       0.00567069       0.23212439      -0.50066195      -2.62676090       0.26557381
H       12.61293682      11.89582824      12.27169829      -0.26869189       0.58070351       0.17820998      -2.63078320      -0.62748651      -0.83373072
H       11.77150730      11.64655477      12.17037816      -0.44746244      -0.10068897      -0.23202376       2.08864404       0.30811206       0.70159557
H        6.54090482       6.46498544      11.23479391      -0.09865295       0.20641790       1.01592413       0.09182565      -1.61843447       2.40839577
H        6.62712720       6.91697310      10.74803611      -0.63305295       0.77970734      -0.19169899      -0.74977302       2.22361822      -2.63780965
O       12.28474768       0.86300833      17.13232244       0.46262411       0.65960538       2.18630341      -2.58612117       0.57126050      -0.69002111
O       11.17249495       0.94905508      17.72950512       2.15477975       1.64688797      -4.23306420       3.64465926      -0.25712895       0.03340881
O        1.28410712      21.94696528       8.01618430       2.26737109       0.31779539      -0.18352764      -8.42660351       2.24831131       6.42161611
O       -0.27432488      22.19388280       8.98427390      -4.04723407       1.93279479       1.69568602       8.74396144      -1.52118603      -6.66272933
O        9.58266342      11.24211162      12.10426460       0.44892714      -3.64224527       1.73743380       3.00918267       0.21720028       4.68086660
O       10.06448303      11.46074639      13.27261212      -1.50493552       0.27279179      -0.53519455      -2.84126990       2.03353841      -4.22814907
O       14.73056362      20.01391207      -0.10050091       2.17961128       0.32332937       0.90162595       2.14557230      -3.47802288       1.46792106
O       15.01354489      18.99847567       0.79977710      -1.85058794      -1.14252757      -3.27760108      -1.26620314       2.90450669      -2.75183117
O       13.47146412      14.22553887      16.35432815      -3.01259615       0.56019380      -1.26064406      -1.87948857       1.32048393       0.11158810
O       12.69772856      14.82780380      17.13560027       1.21695889       1.17349029      -0.44289489       1.72043608       0.32794361      -0.77623255
O       10.63833973      21.71402400      21.07343962       0.28196507       3.62192701       2.50627802       2.38415526       2.13568752       2.82817841
O       11.06923298      22.47346044      22.08490667       1.57455901      -0.59167228       2.20840825      -1.58654648      -1.07998585      -2.50742965
O        9.74233025       8.65290572      11.58565356       1.04215044       1.26214128      -4.11314077       0.25313042       1.27254757      -1.23709601
O        9.58381830       9.51902460      10.71725130       0.56539199      -2.79479253       0.18740954      -0.28299860      -1.34406894       0.83007210
O       18.18342596      17.54708330       5.70624992       1.84603917       1.77948357       1.16349548      -4.04576519       0.69682627     -10.71809964
O       17.72054055      17.66086916       3.89426469      -0.14909410       2.00982098      -2.99127974       3.61936197      -1.06317796      11.65563857
O        8.92282931       4.69882508      21.89067541      -0.69033287      -3.45624502       0.93506243      -1.37421680      -7.27484606       0.63108769
O        8.48324589       3.37781128      21.94846030      -1.27605222       0.38428526      -1.85589559       1.91825775       7.28734577      -1.00008787
O       21.96936479      13.93913110       1.44019818      -1.39538461      -1.91593318       0.72126186       3.21090341       5.49159158     -10.84219614
O       22.49575586      14.79397096      -0.13883136      -0.15198105       1.68378859      -0.99928764      -2.65548066      -5.67217111      10.37310454
O       17.04682459       7.58736390       4.09277694     -10.09989524       0.34496576       0.39319744     -23.27969082       3.49500016      -2.27921846
O       15.47272278       7.68081178       4.06825126       8.29504265      -3.37831146       4.01800469      22.55087994      -2.12922709       2.48031748
O        5.17364679      14.36238430      21.91246108       0.14086841       1.96681447       1.11834739      10.93240802      -2.39956756      -2.55667736
O        6.91368436      13.90525772      21.56291698       2.48068007       0.80789836       0.86654096     -11.28306939       2.28424713       2.20158721
O       11.97685087      17.04527171      15.47756004      -1.75404778       1.61466737      -1.37542856      -1.69220530       0.18764388      -1.32635659
O       11.02502857      16.34060974      15.01648030      -0.41592154       0.37486260       3.78823015       1.60235973       1.21265817       3.02074342
O       18.95157490       3.62606037      10.71794663      -2.56896634      -0.70002878      -1.31878335       9.06489652      -6.83000024       2.55092962
O       20.36550449       2.43767329      10.98419286       3.93639567      -3.59354508      -0.32602935      -9.81611942       7.06855604      -2.19654296
O       22.19414805      12.76748080      20.65031568       1.22691247       0.54588651      -4.52969913       2.53313691      -1.96690102      10.70425389
O       22.58823401      12.32672478      22.44737551       2.08735933      -0.99748872       3.09640309      -1.47464202       2.17780561     -10.17863005
O        5.95017370      14.57926470      13.79670966      -0.52828526       1.00438691       0.66011547      -1.66072707       0.21173966       1.89498095
O        5.74133282      14.77397365      15.02558111      -0.88427687      -1.34572711      -0.64029074       0.87146602      -0.69823104      -1.76452214
O        5.91479649      21.98274595       0.46549975      -0.25867399      -0.99558047       0.66358931      -1.85896284       1.10084865       5.06357211
O        5.50953704      22.04167174       1.75137034       1.11721687      -1.81747462       0.33781073       1.41978861      -1.10220678      -4.66858278
O       18.74047425       8.09503981      11.48374985      -0.63393803       2.19058753       1.14876886      -1.21206374       2.40823336       0.09892095
O       17.82574678       8.96204022      11.52401124      -1.29855886       1.05803920      -0.15762233       1.30628595      -3.13093666       0.81842750
O        7.84086670      16.80549669       1.05568296       0.94719121      -1.44301554      -2.82478085      -0.43602092       4.08597192      12.02103417
O        7.91004552      16.99381004       2.93765807       2.49810907      -2.47726225       2.57919319      -0.41474466      -5.01901383     -11.39158074
O       15.71015094       0.52483882       8.71601245      -0.82950787       2.99875247      -1.45114427      -4.91500008      -1.23741626       0.72760044
O       14.54599662       0.05828276       9.10589743       2.75277001       1.86964491       2.91177380       5.07106697       2.41111686      -1.20625455
O       10.22302122      11.59499539      15.94795532      -0.20956894       0.46694225      -3.40308522       1.68950718      -3.38560459      -1.33898187
O       10.82712258      10.50789434      15.64598084      -0.26174740       0.49133318       1.81506666      -1.73631737       3.78811452       1.96282487
O       15.91388388      12.86767702      14.11889632      -1.55805652      -2.11079726       1.19519567      -1.20287912       2.19418374       5.03155861
O       15.64404778      13.35693956      15.30956248      -0.31360728       1.13859663       0.73145828       1.39138509      -1.57160557      -3.89008916
O       15.27786806       4.29886134      19.22226738      -1.43637132       2.16670669      -0.89408601       4.22853841      -7.02527812      -8.52458246
O       15.93636662       3.14020694      17.93552103      -0.79478657      -5.06958033      -0.82547081      -4.35981481       7.19400652       8.82619199
O       16.08114779       7.69918631      12.81950853      -0.18484010       0.74916471      -1.33162227       0.85025653      -3.38119098      -3.60562277
O       15.87763661       6.72880141      11.99518009      -1.27551202       2.33781910       2.69161917      -0.42758323       2.88950770       2.17086901
O        7.13240460      14.73739465      17.67030938      -3.51863560       3.90634953      -7.86006608      -5.85674717      12.42061722      -9.39317403
O        6.61586222      15.83681650      16.84752606       4.83144568      -5.21750761       4.34508572       4.90549074     -13.61317443       9.82395946
O       15.57708109       4.42932097      15.71000417      -2.61436784      -0.74544935      -0.84992018      -1.71133457       1.80122380       1.79655485
O       14.87782371       4.82360908      16.70630293      -1.65535734      -1.51536242       1.38516146       1.99801858      -1.64986728      -1.81707778
O       13.77837983       9.01633904      14.75760973      -1.39085571      -1.22949517      -2.65916293      -0.76633664       0.38468794       0.05243291
O       13.37175943       9.99408247      15.42065124      -1.55837261       0.95159104      -0.79418476       0.31055298      -0.26230199       0.13537872
O        7.66712108      10.53349817      16.58752177       0.77731179      -2.24546727      -0.18422470       2.53518513      -0.93543405      -0.00408358
O        8.59154907       9.65461214      16.45853742      -1.39290615       2.52856849      -2.50274241      -3.11594388       1.63461964       0.72119052
O       15.71512582      20.34451302       5.19985089       2.13592043       1.96812675      -0.78183814      -5.03496812      -2.21885450       9.36049184
O       14.83995581      19.94961315       6.71269254      -0.24915870       0.68293495       4.61193492       5.35944999       1.79101151      -9.39248607
O       21.91548289      17.17189592      21.05682208      -0.55005937       2.45980468      -4.80494107      -0.17313631      -2.45909232       3.03659284
O       22.25237025      16.46506516      22.47359746      -1.17852662      -4.19923189       2.52590249      -0.44833773       0.37425327      -2.72167140
O       16.49090092       8.03987602      15.54416394       0.80505046       3.75664237      -0.56068814       5.16455890      -1.09593085       0.48306599
O       17.67465992       7.56384874      15.61425513      -1.11658373      -0.70350229       0.32885143      -4.34207781       0.57965735      -0.81621991
O        5.53497787      13.13507293       7.64982356       0.71415433       1.94690397      -2.50735907       2.39877331       1.96656331      -0.85506651
O        6.29509159      14.01981417       8.13632896       0.64124941      -0.48099797       0.05397114      -2.76537823      -2.49935062      -0.52349407
O        7.11959112       8.45177342      18.20614341      -1.08024383       0.02158504       2.11695590       0.33155204      -1.82126079      -2.64151625
O        7.35653013       8.36836143      19.41943071       2.50686781       2.49256105       0.50536951      -0.03404127       0.77755278       2.06461355
O        4.06215284       6.99713741       8.53758536       1.69709799      -0.85907760      -2.07552946      -3.57569198      -3.58148465       2.27112536
O        3.41059934       6.22005839       9.39035109       0.33815970       0.30055801      -1.70524785       2.77993935       3.70715950      -4.59266192
O       22.30512878      10.15849816      -0.19020873       0.26137829       2.02015752      -3.84223637      -7.30626287       1.24838035       8.27420671
O       20.96138855      10.12590731       1.06565420      -1.96835359       0.50290285       1.54511795       8.51959483      -1.71294567      -4.69569373
O       13.03936592      17.10339260      13.06670649       3.72549189       2.75551609       0.57276641      -1.04508936       0.54978184      -0.57251903
O       14.12185890      17.03738444      13.64901018      -0.88181131      -0.29271645      -1.87380916       1.21066093      -0.45851877       0.97342186
O       10.44811634      12.88793724       7.52898712      -0.85770841       0.32309891      -0.53675519      -0.69859547      -0.82710009      -2.86078712
O        9.63315119      13.10524095       6.55663228       2.84111894      -2.22010420      -0.86487273       1.43123311       0.39597252       3.21481756
O        6.48228464       9.21704906       9.09193101      -0.65576668       1.91930528       0.18795594      -3.32115387      -0.39741400      -1.55757885
O        5.46254865       8.67501572       8.55153988       1.65159553      -1.69344901       1.91057985       2.39099150       1.09140568       1.06958772
O       17.40796082      16.20797585       8.19407938       0.71603018      -0.14680886      -1.19795225       3.58764236      -3.74214395      -4.36039418
O       16.99998478      17.21044048       9.09178797      -1.09455440       3.56930962       2.53900955      -2.75032807       4.07933604       4.14654180
O        5.42567637       5.00685466       0.12280001      -1.20771702       1.67188660       3.20628657      -3.24202696      -1.63940969      -5.40309953
O        6.35344165       5.43093299       1.06300236       4.15591630      -1.84344773      -0.46538872       3.90913371       1.35883790       5.64698239
O       12.49432783       5.47676175       4.53883437      -0.57075926       0.01517023      -0.08946650       0.89560681      -0.95831757       2.84319786
O       12.98027744       4.70905072       5.43798018       0.43091236       2.13261823      -2.24021523      -0.00343178       0.84468476      -2.59112439
O       10.94357629       5.22432300      10.11363841       0.59616345       3.07247642      -0.37802419      -0.09696643       1.59994778      -0.67667207
O       11.25933805       5.81837616       9.08371109      -1.22568888      -2.19961436       3.10373825      -0.05342540      -1.40476777      -0.24295160
O        6.50541378      12.41786918       9.78242985      -0.06065290      -1.40761631       2.19486259       2.15580352       0.52641731       2.22659498
O        7.63145526      12.71684742      10.29180567       0.85203260      -0.25930477      -0.63783584      -2.60508978      -0.58159965      -1.04050339
O        7.50955360      11.99486612       5.91793760      -0.93578330       0.93347884      -1.77746242      -2.48145842       1.03521019       0.12101823
O        6.50582562      12.70129455       5.58123948      -1.14264086       3.29236449       0.43229360       2.40770513      -1.80260581       0.59173151
O        8.38804376       0.65274791       9.00876772      -0.73806631       0.11926456       2.11375177       0.47554119       0.91349054     -11.54274355
O        8.49244665       0.77570604       7.13192919       0.62932098       1.72497873      -2.35902317       0.15583291      -0.78801355      11.60698390
O       21.99816965      14.52879941      15.84673788      -1.01604968      -3.09362153       2.51508345      -0.53058211      -1.85652550       0.14325158
O       21.69632372      13.55384232      16.56992423      -3.69099832      -0.14926585       0.51562622       0.23224124      -1.12471762      -0.22209996
O       10.77871942      16.12172764       8.97220611       1.92188972       1.11475169      -0.32406585       4.18576440      -1.11448824       1.57740537
O       12.00552030      15.76315325       9.17108930      -1.65469088      -0.92511586       4.28471747      -3.86561623       0.98062626      -1.11586803
O       12.87354016      21.61893079       1.29873651      -0.38321207      -2.21264249       1.50193999       0.85170043       1.50222739       4.62110969
O       13.09195719      22.00279083       2.57105843       0.38703453       0.69823268      -2.82507165      -0.13383502      -1.41633316      -3.67006442
O        9.11879545      -0.09996588      13.76633972       1.02230118      -1.84940881       0.78168745      -0.52753232       1.76068533       0.40448932
O        8.98433322       1.06100463      13.30330230       1.28182286      -1.30004856      -0.87584985       0.41275090      -1.44393491       0.46286277
O       11.97101725       7.52099345      14.81197500       0.69444852      -1.93327817      -0.93452397       1.10067637      -0.92601526       2.24759673
O       12.41631731       6.98199427      15.86595759      -0.48237416      -0.19949177       1.47435227      -0.43568804       1.10768638      -2.29130565
200
Lattice="22.43773069742029 0.0 0.0 0.0 22.43773069742029 0.0 0.0 0.0 22.43773069742029" Properties=species:S:1:pos:R:3:momenta:R:3:forces:R:3 connectivity="_JSON [[0, 1, null], [2, 3, null], [4, 5, null], [6, 7, null], [8, 9, null], [10, 11, null], [12, 13, null], [14, 15, null], [16, 17, null], [18, 19, null], [20, 21, null], [22, 23, null], [24, 25, null], [26, 27, null], [28, 29, null], [30, 31, null], [32, 33, null], [34, 35, null], [36, 37, null], [38, 39, null], [40, 41, null], [42, 43, null], [44, 45, null], [46, 47, null], [48, 49, null], [50, 51, null], [52, 53, null], [54, 55, null], [56, 57, null], [58, 59, null], [60, 61, null], [62, 63, null], [64, 65, null], [66, 67, null], [68, 69, null], [70, 71, null], [72, 73, null], [74, 75, null], [76, 77, null], [78, 79, null], [80, 81, null], [82, 83, null], [84, 85, null], [86, 87, null], [88, 89, null], [90, 91, null], [92, 93, null], [94, 95, null], [96, 97, null], [98, 99, null], [100, 101, null], [102, 103, null], [104, 105, null], [106, 107, null], [108, 109, null], [110, 111, null], [112, 113, null], [114, 115, null], [116, 117, null], [118, 119, null], [120, 121, null], [122, 123, null], [124, 125, null], [126, 127, null], [128, 129, null], [130, 131, null], [132, 133, null], [134, 135, null], [136, 137, null], [138, 139, null], [140, 141, null], [142, 143, null], [144, 145, null], [146, 147, null], [148, 149, null], [150, 151, null], [152, 153, null], [154, 155, null], [156, 157, null], [158, 159, null], [160, 161, null], [162, 163, null], [164, 165, null], [166, 167, null], [168, 169, null], [170, 171, null], [172, 173, null], [174, 175, null], [176, 177, null], [178, 179, null], [180, 181, null], [182, 183, null], [184, 185, null], [186, 187, null], [188, 189, null], [190, 191, null], [192, 193, null], [194, 195, null], [196, 197, null], [198, 199, null]]" energy=-119.6559069804729 pbc="T T T"
H        0.02034714       6.51828440      12.96451627      -0.43230383      -0.29317729      -0.44636058      -1.82817018      -2.89663883       0.07583724
H       -0.48222579       5.75333315      12.95720946      -0.30325296       0.13197134       0.33872417       1.94638243       2.83141515       0.11077431
H       16.41573927       7.80979065      22.06838762       0.03613136      -0.07137550      -0.35866176      -0.57654708       1.13051913      -1.70693964
H       16.18221767       8.26540613      21.37810860      -0.41131838       0.16070253       0.56950063       0.58001089      -1.13469003       1.71418426
H        5.97242464      14.69352287      10.44482996       0.47775482      -0.33770550       0.14368767      -1.22388377      -0.16687036      -1.74399947
H        6.36338615      14.73089181      11.01763401       0.41550612       0.50088019      -0.27784431       1.21074242       0.06347655       1.84283518
H       16.89386310      22.09471576      14.13402680      -0.11301699       0.07097136       0.85582955       0.38324478       2.00674135       0.77051912
H       16.87247033      22.81333669      14.60261238       0.17841107       0.17480962      -0.26192462       0.18948105      -1.84036808      -0.79255803
H        5.12667510      12.05528851      13.17962320      -0.86272130       0.81110928       0.75367736       0.21165992       0.71268007      -1.02226854
H        4.82616566      11.80411390      13.79859534      -0.20292839      -0.54350289      -0.04310917      -1.07242515      -0.72931270       1.05375913
H        9.90512630       5.85527274       7.25098854       0.07299875      -0.19670720       0.25589507      -1.23809232      -2.26179371       0.71455304
H        9.47641873       5.11827097       7.38030459      -0.16388256       0.36972646      -0.26786606       1.03726164       2.43101003      -0.72056178
H        3.28338599      11.74843428      13.47560829      -0.39621443       0.23381630       0.02245816       0.00023822      -0.76435412      -0.11618095
H        3.29651859      12.30626284      12.94367868       0.33144744       0.03516867       0.31444904      -0.00684537       0.59557784       0.30499176
H        7.98761001       3.06644758      14.07160716       0.51415293       0.00362035      -0.72652660      -0.36927730      -0.32915215      -0.37314675
H        7.98274163       3.69215731      14.51262794       0.25347416      -0.75541092       0.74639183       0.87815069       0.17173295       0.06264826
H        5.13837403      10.92894783      16.50234877       0.12208880       0.60499436       0.10465829       1.46439150      -0.02065780      -0.00188160
H        5.93407316      10.99019435      16.62690104       0.08242985      -0.98403278       0.19285871      -1.07593931      -0.39470292      -0.50349785
H       11.50747810      13.31779037      14.97136833       0.05438365      -0.83961993       0.75460365      -3.93282909      -2.37964357       0.24124728
H       10.63861591      12.94389982      14.98448438       0.05827861       1.06340462      -0.22544694       3.66149125       2.22057933       0.22051726
H        9.48468639       0.81309774       1.10289470       0.03011563       0.69742600       0.50752399      -1.09868996      -0.26448150      -0.24714170
H        8.67050534       0.71110146       1.23198707       0.55897192      -0.09161800       0.25791535       1.38366561       0.42002038       0.15452412
H       19.76416261       3.40747792       3.46941564      -0.29324753      -0.05632999      -0.10881054       1.10424658       1.37210253      -4.08831417
H       20.05898694       3.54581128       2.57256797      -0.56867763       0.77853775       0.41102434      -1.28745434      -0.66879356       4.34532132
H        9.67595928       3.28252197      12.16900598      -0.73235250      -1.24084954       0.41009203      -0.52367193       1.38484591       0.54781984
H        9.28664522       4.04106654      12.32999067       0.35838608      -0.91340333      -0.84344089       0.56167251      -2.30947862      -0.82896177
H       13.51575980      18.92024901      10.99575205      -0.44521543       1.14774586      -0.20188745      -0.49576015       1.17178739       2.86968903
H       13.23958426      19.18070428      11.77020894      -0.05813765       0.39816463       0.19952329       0.30659996      -0.69548096      -1.99575993
H       15.23690331      22.32560053      20.94117180       0.45304561      -0.74868467       0.53248512       0.32511583       1.30188004      -0.00880426
H       15.06739418      21.64450257      21.00739206       0.79518750      -0.46231156      -0.87408185      -0.03156618      -1.66925205      -0.36437039
H       22.72220698       7.19520194       0.07407847      -0.81617895      -0.39734744      -0.39215655      -7.30493145       1.29027821       0.77224837
H       21.63747200       7.39111820       0.05849347       0.20201296       0.86857727       0.19450591       6.39444083      -0.54506338      -0.77354239
H       10.83462497      22.35422137      15.11246101      -0.04232381      -0.45173940      -0.50263064       0.89810885      -1.81729288      -0.03694108
H       11.23544142      21.62038332      14.89702305       0.02396287      -0.41059127       0.90743089      -0.76425571       1.65276535       0.39324791
H       17.57910016       5.86648410      22.86913483      -1.14813983      -0.17746196       1.83651887       0.20521382       1.36537030       2.41494168
H       17.05625247       5.36224850      23.09812127      -0.28210772      -0.70559465       0.03159701      -1.40455057      -2.17799338       1.15704056
H        8.52135594      13.09619730      13.54114482      -0.28104825      -0.04389034       0.46374452       0.15617565      -0.07174766       0.62389740
H        7.88712972      13.21697258      13.14855757      -0.12972116      -0.99110609      -0.00163757      -0.23463095       0.00312018      -0.92663601
H       16.71594986      10.63493888      14.22575462       0.97547762      -0.98526173      -0.59112368      -0.47832940      -0.37015282      -1.03731020
H       16.33712836      10.25245429      13.61029171       0.55631301       0.83413844      -1.42360665       0.94117910      -0.20926784       0.27280909
H       10.27655899      14.52603387      10.63392074      -0.17177857       0.48643418      -0.87239957       1.20995183       1.78382641      -1.81005562
H       10.67899622      15.13345869      10.13911177       1.18972781       1.07170075       0.59462340      -1.00670168      -1.84164389       2.00124378
H       11.78209734       8.16615326       5.22788857       0.24368476       0.10674655      -0.25775811       0.76941950      -0.04467966       0.53455612
H       11.19937921       8.42017994       4.89107045       0.09204003       0.41532735       0.05881749      -0.54571159       0.06665217       0.17413989
H       22.54086312      -0.69786818       2.75940209       0.68527224      -0.65175426      -0.23442867       0.56628072      -0.25638347       0.93003910
H       22.31896690      -0.47629827       3.49822346      -0.18706432      -0.84306092       0.29862717       0.01871364      -1.60851867      -0.46536083
H        0.70913046      22.65393997       6.78409906       0.23381028      -0.72303568       0.81860245      -0.61031489      -1.23107797       2.49122318
H        0.40355326      22.06411170       7.35905913      -0.04772284       1.22400193       1.20242614       0.13762801       1.80159144      -1.68697241
H       11.40698353      20.54352839      10.45650926      -0.52708588      -0.19976258      -0.32636275       0.26168106      -2.15559782       4.83422098
H       11.52843830      20.16782404      11.32376028       0.92219587       0.56298463       0.29699131       0.72404758       3.42547192      -3.42339926
H        1.33295996      18.26115960      11.32389310       0.15949130      -0.29249805       0.75800200      -0.31631863       0.51461207       0.15435171
H        1.95452518      17.87554530      11.59335449      -0.18061848      -0.67328648      -0.08151812       0.73651282      -0.33959924      -0.12405546
H       20.83010620      12.86261179      12.55775508       0.41634197      -0.41181346       0.08551367       2.68936073      -2.01686089      -2.60974849
H       21.27382369      12.42747403      11.85027034      -0.12760432       0.03858724      -0.15906026      -2.68446675       2.24145375       2.79947121
H       15.26589263       6.90068005      13.96319112      -0.59824117       0.66994414       0.19694543      -2.77410527      -4.68094603      -1.27186063
H       14.89646057       6.01869667      13.65608248       1.02024351       0.26331835      -0.33788121       2.94600391       4.56289400       1.88959435
H        9.66801246      16.62228630      11.27183664      -0.95161010      -0.92037293      -0.42797689       0.08557927      -1.57674712      -1.19267989
H       10.08449993      16.29992690      10.56604643       0.41087632      -0.41745843       0.64452223      -0.93209478       0.98793059       2.31113861
H        0.76364268      18.30748365      18.80576355       0.25578337      -0.14415147      -0.52493255      -0.50013758      -0.59861291      -2.07013310
H        1.10957421      17.67704847      18.96659407       1.34421098       0.48591413       0.19299284       1.37375587      -0.98963824      -0.92246176
H        6.00560340      10.22347736      11.31951726       0.10750726      -0.11380190      -0.90741991       2.69939547      -5.61419715      -1.16233014
H        6.57738662       9.40327812      11.10802156       0.24040857       0.36988346       0.27600166      -3.58523969       5.09141996       1.69323302
H       -0.72814433      15.45539577      11.46943878      -0.58717005       1.11798180      -0.84124849       1.14953856       1.11448301       3.31330471
H       -0.41494600      15.58282928      12.34424777      -1.13528801      -0.64317313       0.43684072      -1.57955181      -0.82262889      -3.53933106
H       20.98063753       1.20621001      14.59940548       0.29001042       0.15588037       0.54500881       0.96306634      -0.74129901      -0.64541565
H       21.46202099       0.64213969      14.27874871       0.13275958      -0.17281273      -0.51253091      -1.03745215       0.52655462       0.46590763
H       19.57140568      13.02880421      15.31689281       0.15086224       0.41729272       0.02974247       1.70415331      -1.07560235       1.09532824
H       19.10724744      13.34090236      14.94158338      -0.16098429       0.36613110       0.57930174      -1.54794052       1.65542542      -0.99211542
H       21.70836104      12.22105236       8.61491220       0.14190103       0.10833976       0.30201047       0.79111064       0.35617043      -0.50140728
H       22.43849161      12.53802594       8.45364501      -0.35326540      -0.45090967       0.00146647      -1.31622342       0.07467686       0.30608459
H        1.63001286      14.54213594      11.04287197       0.29104631       0.41548796      -0.32132570       0.40723909      -0.43563838      -0.04118975
H        2.19413915      14.93846664      10.66408848      -0.11817568       0.30946140      -0.35693923      -0.04462593      -0.06032628      -0.42100525
H       13.13303549      14.03684759      13.14191726       0.87096159       0.91051746      -0.56465400       3.55505268       2.98619544       0.97084551
H       13.87761160      14.63269950      13.41718629       0.26246199      -0.01929019       0.28826701      -3.59001118      -2.79848758      -1.50697856
H       13.92263048       0.77348876      13.86129131       0.50210592       0.59312260      -0.37933629       3.28272902       1.60120571       1.76859785
H       14.60622172       1.15513986      14.37007218      -0.11488575      -1.53910971       0.44804621      -2.78662572      -1.56626211      -1.52042754
H       19.22411029      10.69972136      12.26835371      -0.37497036      -0.32943056       0.21965904      -1.06486346       0.31428046      -0.16414139
H       18.68597445      10.12935058      12.34197499       0.27144946      -0.38311502       0.16348117       0.49393989      -0.53876623      -0.18840968
H        3.85792210      14.50515054      14.33789260       0.04682098       0.43481004       0.36820103       1.85106738      -0.27045812       0.33222937
H        3.23694199      14.89174079      14.44108408       0.49065557      -0.33582388       0.42760787      -1.18245628       1.37980876       0.51034900
H       -0.23957847       6.32412051      14.83197853      -0.93482539       0.17333536      -0.52148309      -0.20613311       0.81145134       0.02523273
H       -0.48256805       7.03274446      15.17528924       0.06741197      -0.18801539      -0.43520787       0.36804115      -0.89780276      -0.30857627
H        6.46701064       9.46795371      21.87562497      -0.11120799      -0.25109707      -0.08090433      -0.88270787      -0.66467452      -1.51787311
H        7.04948002       9.32615750      22.31179491      -0.01879276       0.59692588      -0.21979815       0.86297021       0.72747987       1.04373878
H       12.06977816      -0.40763716      12.90708584      -0.53231708      -0.66392145       0.15954692      -0.27551905      -1.28726404       0.30705134
H       12.28315312       0.15740881      12.52171627      -0.27724637       0.05457904       0.95332488       0.34190575       1.36466853      -0.75865039
H       21.08302390       9.68195852      14.30845596       0.64925147       1.21472267       0.86436815       2.11853213      -1.70929833      -0.99091138
H       20.58227419      10.11376577      14.48127462       0.45020432       0.23737972      -0.17599903      -1.86297478       1.89237105       0.75928623
H        8.98245699      11.02239390       8.59404306       0.38539369       0.69989560       0.43445225      -0.28022573       0.87864998       0.22475186
H        8.34509304      10.79674009       8.92163142       0.39345456      -0.61189539       0.30183980      -0.08594814      -0.58778685       0.60126247
H        9.32491497      11.49295466      14.15336280       1.00535160       0.48106142       0.31427856       0.22255929      -0.21713138      -1.63725420
H        8.76955679      11.04955830      14.40968708       1.20504021       0.98752615      -0.32195619      -0.93262517      -0.28289708       1.65828292
H       -0.60906876      21.65758837      16.71269024      -0.54666921       0.50229076       0.90794344       0.18763920       1.53665141      -0.41631203
H       -0.65525997      22.33286843      16.25091072      -0.80025405      -0.29092260       0.10291339      -0.27337792      -1.05186178       0.21726046
H       16.86553801      13.33441421       9.82391047      -0.04573435       0.12872612      -0.60056971      -0.06676610      -1.07474336       0.90883379
H       16.91926508      14.06992176       9.78974522      -0.32527963      -0.29355821       0.19457385      -0.16310951       1.00705926      -0.57915270
H       12.47827193      12.01810125      12.26716501      -0.73694166       0.41438128      -0.18527513      -1.78773335      -0.79593945      -0.90774207
H       11.72542439      11.62073681      12.15796225       0.01688339      -0.08589738       0.02431224       1.24527460       0.44973830       0.67066607
H        6.53805208       6.50905505      11.49526408      -0.01384202       0.44936008       0.76100397      -0.09339575       3.79856892      -4.09777352
H        6.43679072       7.11595334      10.70806007      -0.88386397       0.61562887       0.14245065      -0.57707009      -3.03988277       3.96039709
O       12.28887851       0.87652101      17.16005689       0.53205230       1.08169673       1.13921534       2.15743722       0.15592665      -3.32264084
O       11.21424050       0.97574257      17.66936488       2.78173389       1.59582691      -3.43236991      -1.14189666       0.16963230       2.48557544
O        1.30606647      21.95083402       8.03258297       0.36282223       0.40280564       2.00085344      -9.01397486       2.57908462       6.48422382
O       -0.31453471      22.21794793       8.99464832      -1.56458515       1.17850766      -0.32522719       9.30382273      -1.74133370      -6.91082501
O        9.59734137      11.18389537      12.13785717       1.53430599      -3.85154267       2.47767046       1.66567626      -0.60264798       1.70995030
O       10.03999564      11.46876030      13.26100155      -1.32770106       1.18218043      -0.88647788      -0.47635574       2.54887836      -1.82861295
O       14.76504229      20.01074086      -0.08407871       2.25995159      -0.65173485       0.66300379       1.25479685      -0.77943031      -1.36400474
O       14.98006222      18.98559693       0.73844700      -2.40793987      -0.45836989      -4.23399069      -0.52368594       0.23300081      -0.05346804
O       13.41722526      14.23477571      16.33145488      -3.56866664       0.27220502      -1.98038171      -0.77274291       0.21870115      -1.29972977
O       12.71740268      14.85216787      17.12912004       1.52165636       1.85914682      -0.30089654       0.38068410       1.49043556       0.61722479
O       10.65192561      21.77268378      21.11595826       1.17951241       3.92439129       2.81943181       1.27797819      -0.03959703       0.12451968
O       11.08861552      22.46159535      22.11023372       1.11176769      -0.68481775       1.29976957      -0.57636031       1.01669530       0.12034540
O        9.75974853       8.67046725      11.52680171       1.22338806       0.89956880      -3.18295567       1.24073323      -3.25184278       3.62845918
O        9.59580913       9.47174113      10.71735142       0.52836364      -2.90101705       0.07891609      -1.07584369       3.55247341      -3.61181645
O       18.21062134      17.57786746       5.70667466       1.70688390       2.01274847      -1.20115262      -4.31615342       0.76449622     -11.05766805
O       17.72674277      17.68811405       3.86930601       0.81197215       1.41711747      -0.17126122       3.81847848      -1.09233804      11.98435437
O        8.90549014       4.63648429      21.90312405      -1.54714750      -4.34651560       0.64879229      -0.07541638      -3.06023900       0.42896404
O        8.46634004       3.39191694      21.92041755      -0.95159065       1.40425876      -1.98366501       0.42738864       2.97658208      -0.83534922
O       21.95224489      13.91964922       1.42937508      -0.80723850      -0.44129098      -2.00331766       3.06276084       5.69902031     -10.72891847
O       22.48312294      14.81217727      -0.13901465      -1.08363007       0.92234840       1.35437828      -3.06476200      -5.87814233      10.31200111
O       16.86907596       7.60288358       4.08917854     -11.07672951       1.35490284      -0.46124475      10.83179183       1.22270449      -2.28309061
O       15.62346565       7.62767793       4.13099300       9.59695881      -3.41202949       3.93671732     -11.65674260       0.28999136       2.47939085
O        5.19662157      14.38383738      21.92766436       2.90952758       0.68833537       1.35196669      10.91130590      -2.42348689      -2.69245286
O        6.92957788      13.91683586      21.58478900      -0.18205924       0.85897715       1.45507315     -11.25073365       2.20335974       2.18884681
O       11.94889404      17.06840968      15.45680660      -1.56496171       1.84525314      -1.61170014       0.48461807       2.26239457       0.19463013
O       11.01537665      16.35041055      15.08270829      -0.77770475       0.80472901       4.45952943      -0.62969915      -0.49001913       1.56936235
O       18.92810092       3.60838865      10.70323049      -0.40621277      -1.75051347      -0.81596158       8.93707759      -6.16150810       0.96825867
O       20.40997772       2.39355181      10.97614863       1.93839534      -2.32133775      -1.02228093      -8.20403021       6.43489676      -0.43398982
O       22.21453039      12.77548292      20.59292660       1.22218589       0.09291703      -2.32336775       0.26872820      -2.81733347      11.26080313
O       22.61989825      12.31660002      22.47154734       1.87017069      -0.52925501      -0.06644873      -0.70459957       2.47708312     -11.04156198
O        5.94408588      14.59890003      13.80946778      -0.21066596       1.57332132       0.75260364       0.69992742       0.35279687       0.40914106
O        5.72403091      14.74942270      15.01183686      -1.34915880      -1.81818189      -1.08995270      -1.71997415      -0.24726763      -0.26661693
O        5.91046249      21.96768004       0.48862884      -0.16022620      -1.00214884       2.20566547      -0.85060956       0.80639420       2.12299988
O        5.52974663      22.01025410       1.74713061       1.20852185      -2.64994667      -0.99870350       0.57461811      -0.75319639      -1.95919976
O       18.73133300       8.13472289      11.50208388      -0.13127352       2.56804374       1.30437922      -0.24729860       1.66070539       0.48846917
O       17.80784995       8.97027059      11.52598151      -1.33492412       0.07911298       0.29179610       0.11421996      -2.52174651       0.71679557
O        7.85215936      16.79122818       1.02766946       0.85521405      -0.74332592      -0.67464571      -0.84581090       3.74979545      10.55172514
O        7.94986003      16.94910635       2.95348937       2.66845010      -3.47929136      -0.56654013       1.07819084      -3.87952315     -11.91340960
O       15.68769896       0.56076118       8.69319907      -2.11782496       2.06523725      -1.30942621      -1.74378935      -0.75557242       1.28453172
O       14.59551544       0.08632649       9.15128672       3.39796246       1.68423281       2.84787328       1.97114778       2.03307727      -1.56483991
O       10.21770741      11.59898466      15.89485287      -0.33515440      -0.11962336      -3.67095857       0.47578058      -1.35247794      -0.46321939
O       10.82030551      10.52232339      15.67129892      -0.42262315       1.25254883       1.54424977      -0.65770738       2.09403396       0.97440651
O       15.88694053      12.84239101      14.14573103      -1.91290507      -1.38332069       2.46789263      -0.86832651       1.87575850       4.00525329
O       15.64324744      13.37663450      15.31530050       0.17565175       1.13312512       0.16461408       1.17256902      -1.30498857      -2.78559507
O       15.26205896       4.31876186      19.19337707      -0.42200882       0.07535032      -2.85153677       4.18489388      -7.70175876      -8.60862240
O       15.91644179       3.07930646      17.94023352      -1.73652094      -2.97481075       1.37573651      -4.57003735       7.79817115       8.89982455
O       16.07991970       7.70895039      12.79444362       0.06471452       0.61852701      -2.00116945       1.44766184       0.40717445      -0.50352603
O       15.85932915       6.76808096      12.03628073      -1.06360580       2.57648863       2.89030837      -0.94346227      -0.89500753      -0.88941514
O        7.07574493      14.80911528      17.54379080      -3.37447692       4.04452274      -7.99200474       3.87166901      -9.30171352       6.56454508
O        6.69042883      15.74867676      16.91872791       4.33462876      -5.04950384       4.38797396      -4.92259614       8.51941667      -6.29692394
O       15.53532352       4.42622148      15.70140672      -3.01180716       0.30185354      -0.52922452      -1.51476510       1.71957538       1.88599965
O       14.85570950       4.79366389      16.73137873      -0.88259394      -2.21103111       1.84186230       2.04475437      -1.67765841      -1.93351812
O       13.75481236       9.00047422      14.72181183      -1.48056623      -1.05436509      -1.78362071      -1.54562152       2.11368942       1.22023665
O       13.34748624      10.01008511      15.41255040      -1.56121275       0.90343647      -0.69828490       1.07890041      -2.06397832      -1.04241946
O        7.68045042      10.50347273      16.58959070       0.82163349      -1.88140034       0.07504080      -1.33579414       2.77694790       0.73691870
O        8.56602770       9.69118137      16.41986109      -1.55966222       2.42013964      -2.68939252       0.30640981      -2.00471186       0.23581731
O       15.73786261      20.37520819       5.20820256       0.41131065       2.00017439       2.15147734      -5.45485362      -2.72304829      10.06200728
O       14.84588216      19.96342147       6.76187940       1.27742824       1.14429102       1.95901163       5.72582379       2.45219135     -10.11755706
O       21.90871827      17.20473090      20.99094197      -0.65259856       1.70418810      -3.38836768       3.18898139      -4.23840520       6.83830315
O       22.22902947      16.40745230      22.50346612      -1.63178567      -3.37270162       0.66635143      -2.53797966       3.53907628      -7.35896897
O       16.51151516       8.09046515      15.53968151       1.54493841       2.97752754      -0.20840546       0.75369738      -1.79917697       0.75911778
O       17.65326124       7.55660603      15.62020618      -1.84723150      -0.56215185       0.42882642      -1.29214385      -0.01754073      -0.37103947
O        5.55025019      13.16447171       7.60552998       1.16639122       2.05837893      -2.76048919       2.26090020       2.18749090      -1.65631402
O        6.30070773      14.00538461       8.13963734       0.05619602      -1.28516761       0.32246657      -2.76300633      -2.73113173      -0.26392315
O        7.10180423       8.44199381      18.23450628      -1.39800500      -0.92694640       1.64589354       0.76189642      -1.01908519      -3.36097356
O        7.39119422       8.40589443      19.42974958       1.96886689       2.32446859       0.97678040      -0.51943734       0.47814090       3.11348405
O        4.08099401       6.97587439       8.50614518       0.77294937      -1.76156719      -1.84593251      -3.43311375      -2.18496738       0.57086091
O        3.41961886       6.23119256       9.35275449       0.95053705       0.76455312      -3.16115591       2.08840242       2.50254434      -3.87120675
O       22.28965462      10.19147527      -0.23661892      -2.10421125       2.18558655      -2.09437341      -7.03519787       0.98476056       8.40644112
O       20.94701236      10.13403368       1.08647715       0.01355646       0.29713804       1.08288601       8.81257676      -1.61296265      -3.74622404
O       13.09549158      17.14460136      13.07134052       3.20732618       2.67876395       0.00302297      -5.39752567       1.21353244      -2.70964616
O       14.11442753      17.02942432      13.62340266       0.23306248      -0.61779299      -1.43741667       5.53729168      -1.13329924       3.00439086
O       10.42997237      12.88989442       7.51828287      -1.26936211      -0.19152682      -0.91474559       1.05098868      -0.99122999      -0.61725703
O        9.67387922      13.07808852       6.55363384       2.18839949      -1.05899575       0.42544279      -0.69818227       1.08188720       0.72723222
O        6.46735253       9.24405849       9.09455798      -1.12265590       1.87789380       0.41328496      -1.38171814       0.39648607      -0.76738704
O        5.49511898       8.65011228       8.58299781       2.33163402      -1.47226129       2.16185689       0.65183591       0.03009885      -0.00705344
O       17.42095448      16.20029818       8.16559993       1.32566225      -1.01931921      -2.07624262       2.45507939      -0.88286826      -1.66473665
O       16.97521691      17.26676813       9.13879988      -2.16284581       4.06406823       3.07642357      -1.69666338       0.96990092       1.80159317
O        5.40076515       5.03032375       0.16406915      -1.97242775       1.10506631       2.18972247      -2.92067711      -1.18364034      -4.32124538
O        6.42540486       5.40588275       1.07178221       5.00963843      -1.56078965       1.43613390       3.60091786       0.65990678       4.58449864
O       12.49171761       5.47559446       4.53912574      -0.16829026      -0.04778158       0.24577771      -0.66071354       1.40580240       0.59510740
O       12.98404294       4.74662148       5.40286729      -0.14407154       2.12844161      -2.31847650       0.55516161      -1.48873917      -0.18514417
O       10.95443227       5.27560141      10.11109607       0.89061044       3.49229505       0.43015352      -1.84463726      -1.21520610       3.94110440
O       11.24615007       5.78533087       9.12530582      -0.47338593      -1.99084366       1.80349782       1.51597856       1.95620959      -5.35938268
O        6.50849652      12.40177586       9.82323575       0.45563651      -0.91677496       2.77008622       0.78642349       0.13305045       1.35542592
O        7.63590394      12.71078658      10.27601684      -0.06849319      -0.49429552      -1.45173921      -0.96603349      -0.20011098      -0.45034483
O        7.48954164      12.01199049       5.88567465      -1.98680109       1.49960415      -2.18483926      -2.56740378       1.81826115      -0.10331206
O        6.48940321      12.75715368       5.58526166      -0.94951939       4.10640963       0.16457017       2.23691322       0.01400401       0.52068151
O        8.37302435       0.65600744       9.02013050      -1.27383181       0.18214844      -0.60204249       0.44377929       1.12817732     -11.77984144
O        8.50330168       0.80000581       7.11666804       0.84026595       1.46887586       0.51761560      -0.21419708      -0.89086854      11.79146644
O       21.98028468      14.47855332      15.88519539      -1.19919146      -3.31248130       2.48068463       0.47873427       1.46782782      -1.58202731
O       21.64138862      13.55323267      16.58105748      -3.58593291      -0.15762592       0.69938558      -0.75519246      -3.09388463       1.71026997
O       10.81122469      16.13225077       8.97040853       2.10363492       0.37556537      -0.06168707       0.54984803      -0.10525407       0.92775393
O       11.96898013      15.75002155       9.23165408      -2.82754605      -0.64759406       3.80886231      -0.48730060       0.02425677      -0.50566759
O       12.86238422      21.58315970       1.32461332      -0.94007527      -2.17999429       1.83945276       0.18236441       0.26716574       1.25867550
O       13.09550931      22.01008000       2.52172108       0.16218148       0.32132120      -3.21996340       0.43939711      -0.62300309      -0.01513671
O        9.13170615      -0.12541056      13.77805675       0.95426685      -1.60735731       0.79735754      -0.47203301       2.33297662      -0.07282876
O        9.00252312       1.04360509      13.28784458       1.26885356      -1.32413233      -0.88134641       0.49678814      -2.14473015       0.65304239
O       11.98227524       7.49115265      14.80186694       0.89045845      -1.83893512      -0.67147637       0.82299269      -0.71380944       1.76880098
O       12.40830585       6.97858962      15.87637314      -0.95846294      -0.16381749       0.42728723      -0.29827609       0.79983735      -1.94188884
200
Lattice="22.43773069742029 0.0 0.0 0.0 22.43773069742029 0.0 0.0 0.0 22.43773069742029" Properties=species:S:1:pos:R:3:momenta:R:3:forces:R:3 connectivity="_JSON [[0, 1, null], [2, 3, null], [4, 5, null], [6, 7, null], [8, 9, null], [10, 11, null], [12, 13, null], [14, 15, null], [16, 17, null], [18, 19, null], [20, 21, null], [22, 23, null], [24, 25, null], [26, 27, null], [28, 29, null], [30, 31, null], [32, 33, null], [34, 35, null], [36, 37, null], [38, 39, null], [40, 41, null], [42, 43, null], [44, 45, null], [46, 47, null], [48, 49, null], [50, 51, null], [52, 53, null], [54, 55, null], [56, 57, null], [58, 59, null], [60, 61, null], [62, 63, null], [64, 65, null], [66, 67, null], [68, 69, null], [70, 71, null], [72, 73, null], [74, 75, null], [76, 77, null], [78, 79, null], [80, 81, null], [82, 83, null], [84, 85, null], [86, 87, null], [88, 89, null], [90, 91, null], [92, 93, null], [94, 95, null], [96, 97, null], [98, 99, null], [100, 101, null], [102, 103, null], [104, 105, null], [106, 107, null], [108, 109, null], [110, 111, null], [112, 113, null], [114, 115, null], [116, 117, null], [118, 119, null], [120, 121, null], [122, 123, null], [124, 125, null], [126, 127, null], [128, 129, null], [130, 131, null], [132, 133, null], [134, 135, null], [136, 137, null], [138, 139, null], [140, 141, null], [142, 143, null], [144, 145, null], [146, 147, null], [148, 149, null], [150, 151, null], [152, 153, null], [154, 155, null], [156, 157, null], [158, 159, null], [160, 161, null], [162, 163, null], [164, 165, null], [166, 167, null], [168, 169, null], [170, 171, null], [172, 173, null], [174, 175, null], [176, 177, null], [178, 179, null], [180, 181, null], [182, 183, null], [184, 185, null], [186, 187, null], [188, 189, null], [190, 191, null], [192, 193, null], [194, 195, null], [196, 197, null], [198, 199, null]]" energy=-144.66551505879954 pbc="T T T"
H       -0.11199082       6.39751029      12.86895175      -0.48726045      -0.53739130      -0.27968276       1.16930779       1.78890755      -0.48934573
H       -0.51064429       5.83736611      13.03518736      -0.10657914       0.34087133       0.25538477      -1.32144146      -1.69495340       0.55947791
H       16.43043673       7.79284480      21.95002982       0.00680006      -0.13133252      -0.59030890       0.39628954      -0.58251382       0.49183581
H       16.08633985       8.29844699      21.52576472      -0.48547949       0.11515924       0.56912488      -0.39829054       0.58450932      -0.50078882
H        6.07037204      14.61544178      10.41429602       0.39320763      -0.25394014      -0.30799734      -0.11211698      -0.14920841      -0.15497359
H        6.50830970      14.83832682      11.00876251       0.78045861       0.35347071       0.12857499       0.07940014      -0.00946482       0.10701407
H       16.88739899      22.14472099      14.35882057       0.00235993       0.05597848       0.90248041       0.08161052      -2.00328148      -0.79256854
H       16.91261908      22.82036885      14.52085075       0.14404552       0.08206253      -0.33011666       0.12845180       1.65780208       0.62675576
H        4.91214996      12.27032130      13.33212869      -0.86687737       0.85279138       0.64133084      -0.26297385      -0.17766222       0.45207495
H        4.72915694      11.66601568      13.82808683      -0.57367679      -0.50802082       0.19996796      -0.39771457       0.25679205      -0.36952987
H        9.91170158       5.77427075       7.32474165       0.15508254      -0.38303918       0.32471165       0.78689511       0.89883736       0.29501551
H        9.44504289       5.23857597       7.30672939      -0.17969421       0.42128171      -0.28756120      -1.30641527      -0.94528182      -0.44924225
H        3.16508663      11.77343010      13.48269328      -0.45724697      -0.04113103       0.04129710      -0.15546484      -0.56022947       0.04047665
H        3.35290566      12.33679992      13.00953289       0.28883348       0.19081440       0.19591390       0.12890698       0.59377054       0.06346547
H        8.08847516       3.07350867      13.88786885       0.34405415       0.10887853      -0.69445672      -0.27815278       1.16589459       1.98098169
H        8.09453564       3.47345458      14.66026548       0.60937335      -1.12117343       0.35644205       0.78696658      -1.47291178      -2.23398150
H        5.20183345      11.08303115      16.52269026       0.39848616       0.61228345       0.10277712       0.99675285      -1.31251421       0.27419827
H        5.91312680      10.74542981      16.66553266      -0.23432052      -1.12147480       0.12113116      -0.92821220      -0.86853898      -0.26857188
H       11.43758781      13.08106787      15.17316863      -0.40763225      -1.02686445       0.90977415      -0.37159780      -0.46700077       0.16072812
H       10.69251560      13.22719006      14.94655903       0.21783300       1.20540818      -0.00733576       0.17388781       0.42444660       0.21859719
H        9.48107837       0.95999091       1.18837500       0.08159575       0.54183275       0.20950847       1.56629510       0.26352970      -1.70920061
H        8.81318592       0.69129312       1.32140734       0.51388055      -0.13328405       0.49994803      -1.18242150      -0.23765174       1.49760862
H       19.70844688       3.42263556       3.37889605      -0.24576907       0.10850114      -0.38162945      -0.88951489      -0.03973631       1.56456241
H       19.91583591       3.69254440       2.75964396      -0.55799763       0.50778195       0.89618523       0.71266970       0.64824754      -1.44664723
H        9.52407833       2.99735424      12.25764628      -0.43897557      -1.19787103       0.22637556       0.72684209      -0.13872769       0.03413260
H        9.37333725       3.77467629      12.09844046       0.37884156      -1.24605613      -1.01355740       0.38938826      -1.49888545      -0.24061301
H       13.39316243      19.21227482      11.01452256      -0.48150566       1.16021640       0.26976140       1.05429479      -0.89907750       0.74303221
H       13.22743225      19.26798240      11.75045725      -0.05936275       0.29982737      -0.26112225      -0.63734896      -0.70120392      -0.94891299
H       15.36962289      22.18060861      21.08074291       0.52389452      -0.54047738       0.63622759      -0.11926741      -0.39590724       0.03167534
H       15.29724129      21.47595772      20.79149078       0.97246617      -0.78235508      -0.94414467       0.71602533      -0.27205645      -0.69498348
H       22.38198452       7.13364247       0.02900743      -1.60485513      -0.16169252      -0.11325812       1.63092356      -1.14094966       0.12850921
H       21.83181636       7.57570498       0.07539177       0.97858541       0.71478963      -0.03435579      -1.99101355       1.51232789       0.00323501
H       10.82318702      22.21534679      15.00092403      -0.05637600      -0.64127186      -0.32204445      -0.10977466      -0.00554444       0.63978175
H       11.22927764      21.55535368      15.12005965      -0.02051040      -0.25671494       0.82578874       0.04526984      -0.05663419      -0.33531771
H       17.32356643       5.86113930      23.35438039      -0.93725070       0.17985079       2.05166778      -0.80154701       1.55005198       0.24821187
H       16.95520770       5.13935128      23.13444360      -0.38729861      -0.98335770       0.02997715       1.55600872       0.80493414      -1.00775979
H        8.46900895      13.10130521      13.65231367      -0.27214368      -0.01956808       0.45817793      -1.30951653      -0.17636491      -0.57052861
H        7.86993776      12.99527298      13.10527300       0.01885760      -0.85102672      -0.24649635       1.19878873       0.12028287       0.33341343
H       16.93120094      10.38206936      14.04411401       0.72792270      -1.03192271      -1.03919045      -2.04130488       1.05943480      -2.82532260
H       16.52275496      10.41861044      13.28778272       1.03570759       0.59398475      -1.14857796       2.82044060      -1.84465035       1.78500289
H       10.29018214      14.69742901      10.38935795       0.27868126       0.89852825      -0.94703973       2.16232450       1.67166164       0.41957020
H       10.91760870      15.31543794      10.31112229       0.75515093       0.40528002       0.70940750      -1.97261798      -1.84862953      -0.19930338
H       11.83958042       8.18114990       5.15347253       0.31543056       0.05564611      -0.43254379       0.39537354      -0.04997925       0.11024845
H       11.23244969       8.51656134       4.89620312       0.17664961       0.42810223       0.02681382       0.20104768      -0.04305866      -0.00486018
H       22.70796993      -0.84397562       2.75647386       0.54862699      -0.50005469       0.32483882      -0.76969134      -0.26792874       3.20957005
H       22.26167747      -0.70499906       3.51154320      -0.24938876      -1.16995727      -0.37970602       0.58669617      -1.90892808      -3.06440397
H        0.77327106      22.47938343       7.00821298       0.41253396      -0.64479400       1.05592360       0.78337889       0.40334381      -0.11544857
H        0.39359915      22.36743250       7.62878590      -0.11587126       1.23083734       1.12454381      -1.11536639       0.32740799       0.56616215
H       11.30027789      20.43616632      10.52317103      -0.16865022      -0.64994849       0.74484972       1.25916260      -1.20995041       2.86315204
H       11.75116789      20.38062139      11.30330576       0.70909338       1.02655518      -0.42035399      -1.29047351       0.25276474      -3.07876913
H        1.34759718      18.21550145      11.51244846      -0.07572481      -0.10175962       0.78401533      -1.04827082       0.17494878       0.03419784
H        1.95472327      17.72309101      11.55798013       0.15673302      -0.61842491      -0.19384229       0.08284193      -0.12531231      -0.22173476
H       20.98643891      12.72509585      12.53266033       0.73947035      -0.51737744      -0.10386967       0.06150447       0.68173596       1.65986518
H       21.21949723      12.48427649      11.89019838      -0.23736103       0.27739120       0.20435645      -0.11726398      -0.37364819      -1.55120979
H       15.06331112       6.92411790      14.00492062      -0.99442575      -0.40465408       0.16919657      -0.87708722      -2.26412607       0.70823822
H       15.22342330       6.20714447      13.62091733       1.45355850       1.05048199      -0.00769310      -0.21386466       1.15383184       1.25976956
H        9.46863390      16.36107748      11.12732948      -0.60478204      -1.18736161      -0.76384501       1.11428981      -1.94199953      -1.03438692
H       10.18043141      16.21457692      10.75527408       0.47357697      -0.34799834       0.79240270       1.21595805       0.03242442       0.05804570
H        0.81320199      18.25415118      18.67896841       0.19405991      -0.38127219      -0.44762826       0.35771021      -2.17708591       0.95335416
H        1.44478677      17.77889982      18.98544756       1.34771422       0.41304574       0.06621337      -1.07154271       1.30361904      -0.10327241
H        6.06950791      10.10103388      11.08401786       0.18864272      -0.46057571      -1.08123873      -1.46136647       1.79026416      -1.20450655
H        6.57705421       9.59793156      11.21411688      -0.05946990       0.85285756       0.57110843       0.90905325      -1.11727180       0.81695934
H       -0.83524087      15.71067634      11.38913602      -0.21240930       0.76813800       0.20849108       1.39220740      -1.75336530       4.19793163
H       -0.73671253      15.42442714      12.30529658      -1.57359654      -0.51587944      -0.78419295      -1.35433684       1.33723674      -4.37583742
H       21.09971330       1.23514460      14.68366866       0.57296227       0.02076450       0.11705594       0.40201647      -1.01831193      -1.52975418
H       21.46973681       0.65780664      14.19476411      -0.02616184       0.25502666      -0.19440571      -0.63847017       1.59520963       0.89596843
H       19.66759644      13.09546538      15.36007376       0.58655479       0.14561729       0.20532004       0.12065357       0.31232320      -0.83504786
H       19.01808672      13.47007274      15.09149683      -0.43310348       0.66817560       0.70391626      -0.24879397       0.77161643       0.51046966
H       21.75124953      12.22785260       8.69453539       0.07878716      -0.13060096       0.48346760      -2.36494373      -1.40955122       1.06622459
H       22.34170164      12.43409249       8.45327014      -0.30059523      -0.29894218      -0.14394769       2.39434803       0.98895085      -1.61125841
H        1.70639443      14.63320529      10.97591217       0.12877615       0.23168367      -0.38068837      -1.44638709      -0.84388642       0.01458327
H        2.14841131      15.04346714      10.55039302      -0.16785467       0.52914853      -0.57685261       1.20617554       1.49332947      -0.57174990
H       13.40528907      14.29685641      13.02899422       1.11177509       1.09158454      -0.34764806      -1.28160808      -0.64985319      -0.49513592
H       13.88044154      14.56174788      13.46512639       0.05031206      -0.30740412       0.22487529       1.98906086       0.85861337       0.90758331
H       14.09737944       0.94081520      13.81529133       0.77996484       0.68146384      -0.05993411       0.41694520      -0.29686758      -0.03530855
H       14.53803522       0.77633444      14.44257660      -0.31693470      -1.54400116       0.24182368      -0.45728046       0.31011978      -0.34305274
H       19.12928369      10.62068679      12.36147797      -0.38621834      -0.14385732       0.55422665       0.26165933       2.44775701       0.59798267
H       18.75080145       9.99588722      12.39337341       0.21181029      -0.73297954       0.18035095      -0.23405947      -1.43679109       0.40131576
H        3.92998633      14.59753318      14.42844356       0.61289270       0.29588170       0.41997713       2.28746181       0.13712137       0.77706147
H        3.27740120      14.87180755      14.56414932      -0.15010820      -0.00829452       0.60872606      -1.31928520       0.33209585      -0.53914058
H       -0.45220271       6.37574869      14.70766726      -0.82595938       0.14712694      -0.58046033      -0.08689256      -1.32505676      -0.52666384
H       -0.49326463       6.98360958      15.07891433      -0.01018005      -0.13017358      -0.40220594      -0.44507410       0.84272693       0.69289398
H        6.43387974       9.39620143      21.84405216      -0.26454138      -0.34157231      -0.19522006      -0.44129327      -0.11595203       0.50758263
H        7.06112734       9.47262069      22.28968321       0.15030944       0.54379355      -0.03578610       0.51972860      -0.46717656      -0.33183156
H       11.94489630      -0.58385031      12.95790544      -0.42120593      -0.60858074       0.27912976       1.14072967       1.93454331      -0.82696258
H       12.24462066       0.19724259      12.72510851      -0.17007609       0.10757640       0.81175458      -0.64677954      -1.81544657       0.85257840
H       21.30887004       9.93675284      14.51690792       1.09708970       0.95286029       0.92028165      -0.11501065       0.05440511       0.48595650
H       20.61395775      10.20427054      14.47744536      -0.20231126       0.46763110       0.11994517      -0.94104777      -0.08390753       0.26378003
H        9.04277071      11.17206981       8.70080473       0.05957683       0.35519109       0.50450556      -1.63629887      -1.08549597       0.74164553
H        8.46483906      10.62630248       9.00268620       0.66155219      -0.62560682       0.27904990       1.62119842       0.95700417      -0.49980472
H        9.61725806      11.63055473      14.19222187       1.35875036       0.67667080       0.05102038       1.15715195       1.06083113      -0.40265814
H        9.00228060      11.28415958      14.36223075       0.67562716       0.89606400      -0.10615962      -1.71954386      -0.46156907       0.86442718
H       -0.74208345      21.81189374      16.94277545      -0.47523832       0.72543527       1.07966230      -0.08920210       0.19769429       0.49069976
H       -0.84141348      22.23628851      16.27643753      -0.77464208      -0.47852591       0.07061751      -0.24172747      -0.35302093      -0.06993716
H       16.87087983      13.34006122       9.65421279      -0.03418558      -0.18766074      -0.72952171       0.15231574      -1.59100182      -0.78639075
H       16.83247988      14.02466619       9.84279206      -0.39618561      -0.06300936       0.26730269      -0.36750533       1.38885254       0.64713382
H       12.27555567      12.12192466      12.20740410      -0.70240483       0.48469104      -0.29488470       1.22272889       1.21889187       0.57574044
H       11.74289937      11.61280158      12.16268719      -0.03524581       0.09247189      -0.09342331      -2.03383581       0.07014128      -0.64696218
H        6.50712207       6.74098306      11.52821531      -0.21359827       1.38337790      -0.39975575      -0.76810985       0.96509280      -2.01120356
H        6.27495223       7.18585201      10.86822157      -0.34207163      -0.01473829       1.05817459       1.22788559      -0.74156504       1.70445368
O       12.30353899       0.89326117      17.17957635       1.56802861       1.14987013       1.37176341       7.45914420       0.41217672      -1.79541076
O       11.25468587       1.00111319      17.61876363       2.11238677       1.47680427      -3.14293779      -6.98362223       0.37452155       1.87574662
O        1.30043312      21.95554969       8.07690730      -0.96263743       0.50209325       3.43592881      -8.53690374       0.54293787       7.44831427
O       -0.31244697      22.23649157       8.97579940       1.58002156       1.29731434      -2.14875629       9.05277919       0.01520423      -7.43173439
O        9.62131463      11.12585188      12.17010694       2.08559072      -3.95828941       1.43657831      -0.08071222      -0.40858089      -5.29432297
O       10.01970731      11.48597739      13.24644927      -1.24791171       0.86717383      -0.37524809       0.83456377      -0.35643561       3.25780757
O       14.79684531      19.99859129      -0.07044673       1.87305360      -0.75926843       1.01678444      -1.30975733       1.96022991      -1.48937897
O       14.94270549      18.97824323       0.67556765      -2.51846143      -0.30590912      -3.93288751       0.98241756      -0.45413919       1.34273789
O       13.36889279      14.23807909      16.29878343      -2.95174334       0.23489606      -2.46431726       2.65186731      -1.02945268      -0.47458291
O       12.73678884      14.89014526      17.12264130       1.49147788       2.86140899      -0.27543229      -1.44383227       2.02524838       0.42144287
O       10.66879261      21.82926988      21.15545544       1.31865674       3.69502812       2.21377141      -0.60908897      -0.65404721      -3.14504257
O       11.10682411      22.45383019      22.13058829       1.42305132      -0.40982619       1.70812201       1.09405200       1.05094685       3.75874217
O        9.78534305       8.67260944      11.49137770       1.92363060      -0.94126447      -1.43277765       0.14126480      -6.26439455       7.16102244
O        9.60454968       9.43905169      10.71503115       0.74833912      -1.41225417      -0.23389319      -1.03535062       6.19248345      -5.70835302
O       18.23191347      17.60974754       5.66963397       1.11837060       1.85712155      -3.72278695      -2.52750161      -0.79873295     -10.43124400
O       17.74285381      17.71084934       3.88570252       0.97997176       1.77970400       2.31457154       3.05742520       0.35571031      10.30030436
O        8.87791524       4.56753023      21.91300481      -1.98476189      -4.01100089       0.57100664       0.99243130       3.06634806      -0.75845124
O        8.44859993       3.41154760      21.89056303      -1.36947017       0.74885821      -1.95629639      -0.84700336      -4.52241199       1.09060864
O       21.94068724      13.92729317       1.38140757      -0.47596828       1.25645890      -4.18122558       2.02633940       5.40864901      -9.24441781
O       22.45980974      14.81613097      -0.09615586      -2.10291524      -0.31039988       4.50624866      -3.09993950      -4.38178831       9.08594243
O       16.72359412       7.62728417       4.07530069      -7.97125704       1.82877270      -1.09776478      11.26859140       2.61043266      -1.07386010
O       15.75136503       7.57461148       4.19388220       6.79993457      -3.51342294       4.36881470     -11.76985472      -0.47145324       2.19127607
O        5.25545641      14.38704698      21.94395312       4.63683536       0.10720841       0.84914717       6.88982594       0.42592850      -3.19669514
O        6.90877016      13.93603962      21.61551802      -2.62419856       1.93009932       2.15271351      -7.04131692      -0.27623423       2.39753467
O       11.92854164      17.10456037      15.43592054      -1.50843610       2.72008365      -1.51804081      -0.74629376       1.35998565       0.01190788
O       11.00456027      16.36289111      15.14941493      -0.23096609       0.93751154       3.88578882      -0.12968029      -1.65944313      -0.60885715
O       18.94402628       3.57116091      10.69620734       2.40273758      -3.41829105      -0.08594616       7.77594091      -7.94217838       2.19945167
O       20.42297890       2.36659519      10.95956921      -0.43482154      -1.00435930      -1.03895204      -8.32856963       7.90186898      -2.06423818
O       22.23418642      12.76476799      20.58165446       1.45145859      -1.33961421       0.62969637      -0.96110659      -3.12381973      11.31904506
O       22.64591194      12.31343776      22.44851578       1.39579563      -0.13973766      -2.59268031       0.38508907       2.58848323     -11.85558445
O        5.94140524      14.62196092      13.81670136      -0.29836993       1.82608529       0.05938336       1.77158597       1.93440261      -2.11444358
O        5.69796840      14.72255285      14.99846805      -2.17291251      -2.09828282      -0.72237673      -2.53161721      -2.51710196       0.35062521
O        5.91476258      21.95160950       0.52355030       0.63682035      -0.73975910       2.36272149       1.44145722       0.20746222      -1.18009054
O        5.54928149      21.97123882       1.73524851       1.12635097      -2.24009304      -0.64069594      -1.74212473      -0.29659965       1.45555579
O       18.72580127       8.18046136      11.52336838      -0.37028227       3.04765926       1.36429192       0.52961592      -0.09042496       0.77097293
O       17.78790167       8.96504798      11.53005958      -0.92499604      -0.66072630       0.16732476      -0.89609508       0.31366973      -0.50187805
O        7.86300815      16.78316689       1.04115120       0.74666386      -0.37800750       2.63570303       0.91796109       1.15730432      12.79768105
O        7.99058691      16.88681615       2.92495227       2.40006225      -4.05779434      -3.43909493      -0.57433063      -2.91617255     -11.41776015
O       15.67314069       0.59837885       8.66108823      -0.22436634       2.61371727      -3.00698569      -2.48800675      -0.22174697       0.11592007
O       14.63097920       0.10991974       9.20218664       1.21362475       1.29757863       3.56559832       2.34761466       0.11395613      -0.86523789
O       10.21368941      11.59305942      15.83371956       0.10707722      -0.35422645      -4.13317563      -0.52976143       1.52716428       0.89932458
O       10.81339559      10.54595610      15.69933531      -0.37441648       1.32668006       1.90001680       0.98472473      -1.97937498      -0.56960074
O       15.85618452      12.82224071      14.18936693      -2.17175928      -1.19088212       3.17549302      -0.23537504       0.44613917       2.09545286
O       15.64664489      13.39564902      15.31464851       0.26684809       1.19762717      -0.18839670       0.62602441       0.05245614      -1.99405966
O       15.25890309       4.30536584      19.13429877       0.03988700      -1.83175102      -4.69602904       3.60643892      -7.23538454      -6.62088342
O       15.88421389       3.04689820      17.98519966      -2.60094114      -1.15822033       4.06053779      -3.61511170       7.36321964       6.72108569
O       16.08235972       7.71750367      12.76650343       0.07481439       0.59031542      -1.80049881       1.41722152       4.06759655       2.03223213
O       15.84473346       6.80547600      12.08019473      -0.79677118       1.82541453       2.95918824      -1.39084770      -3.95515266      -1.93083643
O        7.03015169      14.85482919      17.42956388      -2.45354553       1.49350741      -6.54075826       7.01066425     -14.62734363       7.15594195
O        6.75544109      15.69004745      16.97727976       3.90941119      -2.64457228       3.26540895      -6.93457765      14.08634699      -8.28315488
O       15.48433416       4.43357501      15.70080919      -3.65337815       0.39835554       0.52648663      -1.31843819       1.08127271       2.26035194
O       14.84329597       4.76053420      16.75495657      -0.50302741      -1.95628443       1.19128691       0.79466896      -1.85142848      -2.06214134
O       13.73057338       8.98639237      14.69591644      -1.70894345      -0.53101129      -1.24960690      -1.44433425       4.93632226       1.90248732
O       13.32703321      10.02534954      15.39684687      -0.82113065       0.82695681      -1.38336492       1.66620585      -4.55430663      -2.11398229
O        7.68851431      10.47968127      16.59783058       0.05112354      -1.08694843       0.67741118      -4.35183170       2.95058586       0.47011372
O        8.54437272       9.72068627      16.37791520      -0.89904080       1.17024323      -2.96819293       3.91171420      -2.76624101       0.01529291
O       15.73613425      20.40030012       5.25883820      -0.83883216       1.09904538       4.44795191      -4.76011013      -1.26160782       8.94448225
O       14.88196995      19.98153651       6.77822363       3.01622780       1.04256463       0.07803395       4.03710564       1.61949623      -7.84726816
O       21.90252412      17.22093431      20.96079310      -0.09908849       0.36044147      -0.58396571       1.55155575      -5.09819604       9.17123681
O       22.20267887      16.35914857      22.49607618      -1.72631458      -2.91900145      -1.64567941      -1.15480417       4.84938698      -8.95725019
O       16.53536050       8.13388843      15.54007241       1.83873016       2.64735474       0.00019060      -0.94736676      -0.77431225       0.84709418
O       17.62257840       7.54596268      15.62695185      -2.19859684      -0.51482413       0.52438327       0.43587854      -0.48836645      -0.44298199
O        5.56551562      13.19609282       7.55778254       1.08601899       1.87943673      -3.25864092      -0.01103538      -1.62011509      -0.89681312
O        6.30097987      13.97966546       8.13802980       0.21275107      -1.58287148      -0.22868457       0.48057128       0.93098903       0.45040097
O        7.07870193       8.42627974      18.25290488      -1.78798403      -1.09407697       0.88131816       1.30616604      -0.54845029      -1.89101121
O        7.41867725       8.44548309      19.44850961       1.45435190       2.81982466       1.42405940      -1.21246328       0.14534747       2.07378252
O        4.09347341       6.94728016       8.47636429       0.68064404      -1.94390192      -2.22107555      -1.80306269      -0.05984955      -1.09803565
O        3.43509873       6.25083035       9.29998397       0.73199838       1.49798355      -3.37010786       0.64313650       0.78568853      -1.84592817
O       22.24673218      10.22662881      -0.25073362      -3.31753297       2.00869665       0.51844383      -5.44408454      -0.70098285       8.10216200
O       20.96109362      10.13933298       1.09124048       1.79458998       0.27558256       0.02169857       7.69894231      -1.07356767      -1.86812690
O       13.13268267      17.19028377      13.06923441       1.54814901       3.07887398      -0.29143754      -6.49568039       1.36870142      -2.97293888
O       14.13158554      17.01398417      13.60784726       2.35511555      -1.72065553      -0.88414608       5.97014480      -1.90319597       3.09191283
O       10.41880639      12.88617612       7.50291373      -0.14656990      -0.70183547      -0.81599163       2.17734390      -0.94202398       1.10331788
O        9.69761490      13.06504143       6.55421846       1.19587494      -0.70090499      -0.31871836      -1.78360234       1.32402767      -1.45505927
O        6.44207743       9.27200165       9.10146955      -1.74977904       2.00310591       0.56971627       0.39343454       0.97230462       0.13554945
O        5.52980119       8.63146253       8.61387524       2.34800465      -1.19605250       1.76932490      -1.01287623      -1.52299628      -0.87517477
O       17.44263182      16.18644690       8.13458428       1.35143734      -0.53956451      -1.99598273       0.38628580       2.70767504       2.09217114
O       16.93889416      17.32339237       9.18753147      -2.47347865       3.13972217       3.30588485      -0.10550061      -2.72992534      -1.09446021
O        5.36847308       5.04127263       0.18958464      -2.07336557       0.39752610       1.32067407      -1.57634822       0.38590196      -2.70419108
O        6.50724339       5.37906141       1.09662599       5.49664804      -1.98693117       1.92612122       0.42695194      -0.72723730       3.10174386
O       12.47904267       5.47641394       4.54126125      -1.04081494       0.69165119      -0.23163344      -1.67721980       3.28641814      -1.00526079
O       12.98793095       4.76904351       5.36572059       0.49525499       0.75472483      -2.71604402       0.85259123      -2.64613041       0.88130132
O       10.96587968       5.32334389      10.12937234       0.78646508       2.44346173       1.85474706      -2.44552491      -2.31504956       5.80758342
O       11.24509147       5.75814374       9.14228193       0.32047220      -1.34630145       0.30409766       2.40789699       2.88831888      -7.17123299
O        6.50756628      12.39492511       9.86974870      -0.08465639      -0.00550272       3.03053706      -0.50120347      -0.35131956       0.67752236
O        7.63730048      12.70165936      10.25259999      -0.08937463      -0.46479557      -1.46331764       0.65890782       0.11930362      -0.16294358
O        7.45954346      12.04074073       5.86062755      -2.14065899       2.02208321      -1.67891624      -2.18477295       2.15405838      -0.75389126
O        6.47548243      12.81830721       5.58925298      -1.15977000       3.98880096       0.61626165       1.79505389      -0.58462957       1.40064866
O        8.35379412       0.65645399       8.99357667      -1.20332459       0.28252881      -3.07810790       0.35327139       1.40150012     -11.25755011
O        8.51539981       0.82054788       7.14520032       0.57315698       1.33298360       3.21561120      -0.20341701      -0.92040057      11.25055635
O       21.96039721      14.42527883      15.91648255      -1.14912516      -2.90307187       1.90121045       1.28165660       3.27357394      -2.26336794
O       21.57933789      13.54078267      16.59390207      -4.25825561      -1.14595526       1.29425986      -1.88585089      -3.96362496       3.43513237
O       10.84622209      16.14097958       8.96878689       2.34003130       0.57611587      -0.25531160      -2.63163207       1.24557008       0.04856540
O       11.93019768      15.74350214       9.28427735      -2.08147027      -0.42855224       3.35987044       2.73348016      -0.94098423       0.17208651
O       12.84622374      21.54955754       1.34896576      -1.34869228      -2.14396536       1.42808238      -0.64252319      -1.27900143      -3.02844219
O       13.09115041      22.00851472       2.47388761      -0.48176878      -0.20481152      -2.74904942       0.67439966       1.27298703       3.08651610
O        9.14400568      -0.13837593      13.78379317       0.50073024      -0.31706060       0.14173465      -0.02796727       2.24429575      -0.91656923
O        9.02710651       1.02038329      13.27585394       1.42046283      -1.68710784      -0.44492207      -0.22135014      -1.63208058       1.80215721
O       12.00030360       7.46265386      14.79728807       1.14824520      -1.96120257      -0.11955807       0.37417568      -0.22565245       0.66367186
O       12.39187617       6.97578913      15.87363945      -0.82692922      -0.14668111      -0.65380407       0.31681425       0.16414981      -0.84050496
200
Lattice="22.43773069742029 0.0 0.0 0.0 22.43773069742029 0.0 0.0 0.0 22.43773069742029" Properties=species:S:1:pos:R:3:momenta:R:3:forces:R:3 connectivity="_JSON [[0, 1, null], [2, 3, null], [4, 5, null], [6, 7, null], [8, 9, null], [10, 11, null], [12, 13, null], [14, 15, null], [16, 17, null], [18, 19, null], [20, 21, null], [22, 23, null], [24, 25, null], [26, 27, null], [28, 29, null], [30, 31, null], [32, 33, null], [34, 35, null], [36, 37, null], [38, 39, null], [40, 41, null], [42, 43, null], [44, 45, null], [46, 47, null], [48, 49, null], [50, 51, null], [52, 53, null], [54, 55, null], [56, 57, null], [58, 59, null], [60, 61, null], [62, 63, null], [64, 65, null], [66, 67, null], [68, 69, null], [70, 71, null], [72, 73, null], [74, 75, null], [76, 77, null], [78, 79, null], [80, 81, null], [82, 83, null], [84, 85, null], [86, 87, null], [88, 89, null], [90, 91, null], [92, 93, null], [94, 95, null], [96, 97, null], [98, 99, null], [100, 101, null], [102, 103, null], [104, 105, null], [106, 107, null], [108, 109, null], [110, 111, null], [112, 113, null], [114, 115, null], [116, 117, null], [118, 119, null], [120, 121, null], [122, 123, null], [124, 125, null], [126, 127, null], [128, 129, null], [130, 131, null], [132, 133, null], [134, 135, null], [136, 137, null], [138, 139, null], [140, 141, null], [142, 143, null], [144, 145, null], [146, 147, null], [148, 149, null], [150, 151, null], [152, 153, null], [154, 155, null], [156, 157, null], [158, 159, null], [160, 161, null], [162, 163, null], [164, 165, null], [166, 167, null], [168, 169, null], [170, 171, null], [172, 173, null], [174, 175, null], [176, 177, null], [178, 179, null], [180, 181, null], [182, 183, null], [184, 185, null], [186, 187, null], [188, 189, null], [190, 191, null], [192, 193, null], [194, 195, null], [196, 197, null], [198, 199, null]]" energy=-180.6678363977084 pbc="T T T"
H       -0.17928451       6.34307709      12.75850278      -0.11277329      -0.01444007      -0.65106957       0.63252341       1.08938579      -0.63346132
H       -0.58847784       5.85773545      13.12572149      -0.53103690      -0.10637464       0.48728413      -1.05613310      -0.84264171       0.98776811
H       16.43285765       7.74834278      21.85487047       0.02153800      -0.21840580      -0.31600649      -0.26356797       0.33325784      -0.10100619
H       15.95874860       8.35260789      21.65292410      -0.50610648       0.29236871       0.53609871       0.26427211      -0.33744749       0.11670284
H        6.17680763      14.56584173      10.38008204       0.54211412      -0.10873004       0.11425096       1.45247805       0.97003778       1.84298009
H        6.67107320      14.90671724      11.01606924       0.42650728       0.10971906      -0.15318488      -1.44198617      -0.98537811      -1.84813245
H       16.90252862      22.09829266      14.54167930       0.13599945      -0.24177151       0.64076602       0.05531627       1.33823483      -0.38714612
H       16.95049507      22.88588533      14.44375255       0.08546950       0.29599129      -0.31654851      -0.07736648      -1.53918141       0.41439666
H        4.64841579      12.42842554      13.52932250      -1.26422495       0.27760291       0.93839231      -1.43216140      -3.23603252       1.28633027
H        4.58884520      11.59954006      13.83227435      -0.55806991       0.10436771      -0.21556449      -0.40632598       3.47765549      -1.69735090
H       10.01564072       5.69618139       7.40192842       0.55291131      -0.31322766       0.29032115      -0.23295287       0.22284145       0.26766432
H        9.35838039       5.30597800       7.24354773      -0.42243479       0.06580555      -0.22051822       0.77903353      -0.58446363       0.05465703
H        3.06864866      11.73100985      13.49366214      -0.37774732      -0.26371447       0.12589414       0.80550350      -0.84337448      -0.23456441
H        3.40050352      12.36680956      13.07371349       0.07221056       0.02894244       0.24657014      -1.07092395      -1.29012816       0.30191775
H        8.16247077       3.11726234      13.79103779       0.31577731       0.24687269      -0.11000189       0.42541845       0.54134894       1.89809128
H        8.24247057       3.18333795      14.67292596       0.55503353      -1.25137589      -0.18926527      -0.49839583      -0.17864052      -2.23791655
H        5.35238068      11.19324824      16.56086360       0.82763150       0.24979676       0.22168996       1.53054589      -1.73405809       0.92821846
H        5.82003849      10.47513300      16.64157212      -0.58669477      -0.97740587      -0.27422566      -1.77255810       1.51790853      -1.05024389
H       11.31934806      12.82626560      15.38755020      -0.64519939      -0.95267100       0.79124146      -1.71054461       1.39198167      -1.36753047
H       10.79226423      13.48838658      14.93275054       0.64385276       0.70965831      -0.05423507       3.00081917      -3.93239489       0.92491335
H        9.52423766       1.10525971       1.19731955       0.05145011       0.68359818      -0.07130673      -1.37867585      -0.15577763      -0.59261776
H        8.89335711       0.66471029       1.45341345       0.28001556       0.09643750       0.38012256       1.06164002       1.62848609      -0.82286472
H       19.60887569       3.42003660       3.35256390      -0.58478780      -0.31432486       0.08711063      -1.13829643      -2.31704394       0.68404017
H       19.83844564       3.86275787       2.91914712      -0.19797020       0.95269947       0.41816250       0.98050710       2.12568444      -0.35249439
H        9.46370260       2.72983766      12.30262257       0.05771294      -0.84683448       0.09265207       1.47144880       2.19105776      -1.64629392
H        9.48025377       3.45902896      11.85568364       0.48078614      -1.23708292      -0.88426043      -0.26116738      -0.17644908       0.83034006
H       13.33235402      19.48899604      11.06052793      -0.05700098       1.16142990      -0.01443916       1.18747802       0.96869835      -2.77095993
H       13.18286001      19.31832764      11.69996869      -0.37396641       0.14310618       0.04620398      -1.79365346      -0.24296049       2.00263694
H       15.49077898      21.97636745      21.20150328       0.51935026      -1.16676687       0.26977034       0.31966875      -2.18776387      -1.64938734
H       15.54883566      21.32452645      20.57826265       0.93214659      -0.33208148      -0.79517836      -0.79655748       2.70442026       2.04453807
H       22.09207546       7.01204685       0.02383490      -0.98417338      -0.77559443       0.07198250      -0.06697199       0.31135467       0.86635890
H       22.01409587       7.83364933       0.04627600       0.73396849       1.27266698      -0.19996760       0.69697560      -0.86943451      -0.54590176
H       10.80586313      22.06196011      14.94456440       0.07748761      -0.64036117      -0.26191087       0.56479783      -0.25155480       0.02422595
H       11.24623558      21.50063877      15.29928425       0.19371042      -0.32148226       0.67295036       1.01994905      -0.10996919      -0.28206407
H       17.07320143       5.82471856      23.80279113      -1.12063049      -0.80495774       1.43331097      -0.58783153      -6.02087248      -4.04533236
H       16.90636648       5.01008227      23.16706850      -0.07803962       0.00696677       0.35961474       0.92914844       5.04289756       3.08392308
H        8.37277162      13.07736651      13.74097051      -0.53459068      -0.25515680       0.23790308      -0.84590715      -2.10119182      -1.69690526
H        7.94072607      12.80386860      13.06067102       0.52047088      -0.69550199      -0.05892882       1.23831847       0.41043621       1.08417091
H       17.05226119      10.17699888      13.72212708       0.25409734      -0.82290433      -1.46324232      -2.26765073       0.94896242      -0.73330621
H       16.82638263      10.55941771      13.04123885       1.27519045       0.50368639      -0.93165399       0.05343112      -0.26862170       0.61775469
H       10.42017968      14.96359341      10.18896237       0.74901080       1.21629428      -0.69310854       0.76323970       0.60773926       0.64409356
H       11.03109997      15.35203636      10.48657427       0.28178672       0.04820947       0.56835089      -1.02219721      -0.19285209      -0.43191011
H       11.90748279       8.17497854       5.07467213       0.22019926      -0.12038414      -0.22247273      -0.90091377       0.21491241      -0.22914319
H       11.28131331       8.63180089       4.89429961       0.14586193       0.59527219       0.01761906       0.57292833       1.16992431      -0.52371381
H       22.81900630      -0.96498320       2.91170034       0.37018871      -0.54841465       0.91409236       0.05691173      -0.67304863       2.11832717
H       22.25313268      -0.99902290       3.40912307       0.11186463      -1.25372438      -0.32911529       0.03290596      -0.71335262       2.03702286
H        0.86347345      22.31110191       7.27417235       0.24856487      -0.71385622       1.29055886      -1.28045561       0.38797461       1.74527957
H        0.35617217      22.68048847       7.89086120       0.00197597       1.29627964       1.06632806       2.90936899      -0.63972611      -1.95025646
H       11.28773624      20.26505832      10.74673363      -0.06465819      -0.70784846       1.04753178       0.01062237       0.00415698       0.12879887
H       11.88715226      20.60553490      11.11339582       0.46370318       0.84342836      -0.96648872      -0.21871132      -0.05265851      -0.03338616
H        1.31874259      18.18845511      11.67243196       0.12525310      -0.19392259       0.57820825       2.21825461      -1.67463772       0.25266619
H        1.96142894      17.59545227      11.51854265      -0.23034920      -0.37196250      -0.24472252      -2.62171432       1.84223916      -1.35454174
H       21.17633134      12.62275199      12.58252366       0.77068252      -0.27199224       0.59284854      -0.72771417       1.18221784       2.01421435
H       21.17852927      12.53424565      11.86674379      -0.12163853       0.06060044      -0.38979104       0.16557630      -0.31893240      -2.39946576
H       14.80514034       6.78352276      14.04318445      -0.92773929      -0.59823977      -0.07630200       2.85413230      -0.52347286      -2.54716342
H       15.58024196       6.46518042      13.66293069       1.33468119       1.01198884       0.35116692      -2.88527280       0.40839010       2.50845158
H        9.40080059      16.04331824      10.92910025       0.08171518      -1.35165031      -0.78405042       2.37020725      -0.53297112      -0.15680130
H       10.28494477      16.13974024      10.96249094       0.23928217      -0.17881497       1.01514253      -1.85461371       0.17223825       0.17189558
H        0.90436856      18.12583025      18.59716505       0.72280120      -0.67158560      -0.10983641       3.45418733      -1.04421325       2.27205991
H        1.70895837      17.92555017      18.96624101       0.85175733       0.71411645      -0.28316005      -2.01383414       0.56896225      -1.79877416
H        6.07475154      10.03808599      10.79563804       0.01324591      -0.22144602      -1.26192738       1.04736875      -0.71676181       0.02947138
H        6.58803139       9.78928085      11.35577061       0.03910499       0.77530387       0.54154500      -1.09949090       0.77905989      -0.82402387
H       -0.88746098      15.89181723      11.51624006      -0.24906307       0.90144466       0.70292788      -0.24965169       1.35899500       0.25948444
H       -1.12819067      15.32713559      12.03006198      -1.58715508      -0.29220867      -1.33029780       0.36932744       0.55204367      -0.54438356
H       21.23423888       1.22506737      14.70821964       0.49592724      -0.05078088       0.20941833      -0.53845484       0.99419548       1.07837512
H       21.44911750       0.73282173      14.16671692      -0.12947823       0.20315481      -0.10746437      -0.32314091      -0.17432883      -0.72721063
H       19.79611225      13.17744761      15.40598837       0.27917949       0.51204824       0.11750493      -3.65432543       2.63876842      -0.38243723
H       18.96230165      13.59477846      15.27668415       0.06711388       0.29292011       0.62649769       3.42544825      -2.63935930      -0.36044855
H       21.71449191      12.14743620       8.84403529      -0.21535952      -0.46378942       0.75359861       0.39250263      -0.13234072       0.17561319
H       22.33792649      12.38549647       8.37640141       0.06670360      -0.28162757      -0.41427553      -0.54053369      -0.82457326       0.45496628
H        1.72180516      14.69169390      10.87073419       0.01963046       0.18143592      -0.49864499       0.21329597       0.27195078      -0.63671830
H        2.10627743      15.21432426      10.41488029      -0.22195982       0.80630428      -0.56127399      -0.48965572       0.95086853       0.67666834
H       13.60118816      14.52892141      12.89829939       0.46428336       0.90476377      -0.75458332      -1.64375325       0.90240243      -0.32355522
H       13.94815640      14.48910001      13.55780804       0.41140894      -0.36758624       0.67321810       0.61627801      -0.64825769       0.63258966
H       14.30488652       1.09869912      13.80959628       0.93355756       0.36165868       0.26859684       0.37069322      -3.21540673       3.92842117
H       14.44513372       0.41832176      14.49363734      -0.46577588      -1.28838267      -0.03888271      -0.25694325       3.27794067      -3.23062661
H       19.04902086      10.61607605      12.49426152      -0.28812934       0.02578832       0.55448424      -0.45801114      -1.44306752       0.33510191
H       18.77154973       9.81104189      12.44529883       0.06436590      -0.65965103       0.23834904       0.17205439       1.62783651      -0.26620435
H        4.10240470      14.66433192      14.57095289       0.71871010       0.34416525       0.86934879      -0.99678270       1.09167105       2.95484770
H        3.22072787      14.83863918      14.70463061      -0.11484740      -0.24407302       0.45276256       2.63608462      -1.01768188      -1.65572392
H       -0.66616201       6.37307983      14.55828804      -0.87164116      -0.04677232      -0.66867057       0.81562190       0.44285304      -0.72020994
H       -0.50952800       6.97578439      15.00446185      -0.01430633       0.00282057      -0.32248987      -0.05428728      -0.05520304       0.59135892
H        6.39210700       9.31860755      21.82770666       0.07365998      -0.24709814       0.09293159       2.12511004       0.57331306       1.78035173
H        7.06919719       9.59226195      22.23808862      -0.25119597       0.50164682      -0.37791570      -2.72758804       0.04167228      -1.00944894
H       11.87377304      -0.64115520      12.99778870      -0.25068431       0.15046079       0.05235062       1.44469571       1.90031865       0.36530714
H       12.19724660       0.16011145      12.94474262      -0.21142026      -0.46343717       0.97188526      -1.02813272      -2.08166332      -0.49058355
H       21.53377699      10.17369453      14.72173606       0.62750216       1.00145783       0.71433929      -5.32321239      -0.28137711      -1.49195532
H       20.59064561      10.29232734      14.52735924       0.28733704       0.23955128       0.26015811       6.01293525       0.03254020       1.35510000
H        8.99593515      11.21679246       8.83146627      -0.34879589       0.06869295       0.51425057      -0.99273373      -0.87594987       0.05069273
H        8.67349175      10.51850347       9.06534090       1.15633491      -0.28875078       0.21227470       1.17176443       0.65519868       0.43382177
H        9.95424348      11.80014978      14.19929877       1.22126760       0.53991170       0.06687903      -2.33196952      -1.47048527       0.30123046
H        9.13259718      11.51646880      14.33094294       0.67887454       1.09801349      -0.25718267       1.88362473       1.29740941      -0.01624693
H       -0.86581897      21.99050717      17.17438811      -0.61668226       0.84978952       0.73145888      -0.09210788       0.74802951      -2.08209976
H       -1.01737748      22.09620755      16.34234662      -0.70613979      -0.72234540       0.54650558       0.18990580      -0.57613478       2.41574730
H       16.88029995      13.31516843       9.46732033      -0.03036364       0.00484138      -0.64023963      -0.78133094       1.77761416       1.02819021
H       16.74125245      14.01638106       9.92728801      -0.31164852      -0.22305688       0.28687814       0.97606083      -1.84499891      -0.40039187
H       12.11957763      12.26052304      12.12490036      -0.59325295       0.65202374      -0.37695506      -0.46512211       0.34295648      -0.69008147
H       11.72324708      11.61024183      12.13958310      -0.11241806      -0.18513557      -0.04779259      -0.32103958      -0.82009582       0.71135939
H        6.46707111       7.04186745      11.45889957       0.10633094       0.92933654       0.13995927       3.45340344      -2.22378567       5.01946267
H        6.18190740       7.22027802      11.05696179      -0.55455898       0.36165336       0.10190069      -3.66334080       2.35197794      -5.01917508
O       12.34617260       0.91024060      17.19446282       4.26066400       1.28045665       0.39957718       8.67891705       1.58628905      -4.63934011
O       11.26855889       1.02679315      17.57440025      -0.19240885       1.41968340      -2.45143006      -7.29116802      -1.56729848       3.49225970
O        1.26480252      21.96065058       8.14369092      -3.61426330       0.45237911       4.97495826      -9.15948825       0.82695213       4.30731365
O       -0.26816374      22.25752630       8.93119859       4.30779598       1.39161874      -3.30340837       8.52968201      -0.71699845      -4.85634609
O        9.65316130      11.06347142      12.18351400       1.71976798      -4.10455476       0.57541066      -3.17501206      -0.87112826      -3.75706002
O       10.00370277      11.49785657      13.24104078      -0.75600835       0.72617374      -0.26838682       2.45770747       0.99960587       2.40471177
O       14.82410947      19.99491182      -0.06241791       1.90921449       0.20123420      -0.08365496       0.01873056       4.17917510      -2.46956548
O       14.90388835      18.97383107       0.62333640      -2.43651391      -0.70424867      -2.75514788      -1.41777408      -4.32221450       2.04594018
O       13.32718448      14.24057789      16.26131056      -2.53870158      -0.03953132      -2.39541681      -0.32277317      -0.70659781      -0.66499099
O       12.75909745      14.93357765      17.12156802       1.16019613       2.70799950       0.10556581       0.02879037      -0.12055947       1.64055421
O       10.67869798      21.88485307      21.18451319       0.12500758       3.54161037       1.51585560      -2.02552652      -4.87752891      -2.59318701
O       11.13173589      22.45021052      22.16153557       1.79794170       0.09005474       2.29248770       1.75695701       3.30511743       3.75029998
O        9.81494269       8.64525853      11.48208324       1.98483036      -2.23318205       0.00063618       0.01124474      -3.27298194       4.30556177
O        9.61081380       9.42804945      10.69859866       0.40448293       0.37136732      -1.81546861      -0.58081193       5.35107441      -4.93664237
O       18.23974961      17.63543713       5.59598246       0.14403056       1.27431224      -5.69338561      -1.31135133       0.45212070      -6.93990093
O       17.75873600      17.74206087       3.93939674       0.72069117       2.24715472       4.48692879       0.64871614       1.04272212       6.99092407
O        8.84996001       4.51667045      21.91775658      -1.63145300      -2.60630756       0.25815480       3.70012269       4.81194677       2.19994588
O        8.42373653       3.41366294      21.86511056      -2.05180115      -0.57900931      -1.55061061      -3.68652307      -4.54928980      -2.16811014
O       21.93563552      13.95326724       1.30695940      -0.54722549       1.96465723      -5.31771348       1.29803131       2.89200806      -6.31412010
O       22.42035619      14.81035198      -0.01522669      -2.73714513      -0.65295587       5.96569705      -2.39602804      -3.14544380       4.65024098
O       16.62044386       7.65724961       4.05844478      -6.23031672       1.93792300      -1.12535193       1.73676677       0.33131904       0.34635225
O       15.84137281       7.51209654       4.26282499       5.42370660      -4.33419066       4.26888010      -2.27628697       0.92322166      -0.00406973
O        5.33943185      14.38927937      21.95296662       6.09277915      -0.35230950       0.38597815       2.60532304      -2.15109112       0.49845386
O        6.85427662      13.96011487      21.64761075      -4.11449629       1.66378961       2.03418437      -1.84848706       2.66004340      -0.45288065
O       11.91185280      17.15007358      15.41400742      -0.43858050       3.43793887      -1.53019159       1.67662730       3.27899327       0.28956044
O       11.00248463      16.37201920      15.20854289      -0.01677344       0.17039526       3.77004322      -2.15994075      -2.05003857       0.00522365
O       19.00098299       3.50887844      10.69253994       4.64603598      -4.58791548       0.01605441      10.14994009      -7.57239536       1.01213312
O       20.40013285       2.36349492      10.93603610      -2.82175813       0.67186561      -1.70272835     -10.14532296       6.32775120      -0.46423992
O       22.25627931      12.73888924      20.61097539       1.40651301      -1.69727422       3.05594784      -1.72616803      -3.79021032      11.60672456
O       22.66588677      12.31491575      22.38560765       1.20918150       0.38358874      -5.27578599       0.94484837       2.87839804     -12.29006345
O        5.94134749      14.65180993      13.81440914       0.46395779       2.23081359      -0.32933384       1.07753140       0.55272674      -2.48859396
O        5.65503351      14.69120782      14.99238964      -3.29955865      -2.22674883       0.03110255      -2.90883991      -0.63946889       0.29968576
O        5.92541655      21.94363174       0.55639154       1.08083163      -0.63103639       1.71348673       1.89302935       0.13611852      -3.36732191
O        5.56137689      21.93788372       1.73212600       0.71568786      -2.27351036       0.25421219      -2.42308037      -0.25993252       4.05156415
O       18.72678399       8.22461076      11.54290585       0.14370925       2.72073944       1.29789898       1.71947507      -0.57475316       0.05348166
O       17.77190028       8.95566673      11.53265572      -0.82935539      -0.43515228       0.25455615      -2.24091185       1.56956042      -0.77130748
O        7.87199248      16.78302053       1.10385565       0.48941751       0.26874465       5.39962364       0.99968623       0.83074788      10.21775996
O        8.03305864      16.82313972       2.85508958       3.02917646      -4.23187406      -5.67862073      -0.01760954      -2.40792612      -9.13805469
O       15.65804279       0.63664744       8.61336041      -1.31720629       2.00527712      -3.16561266      -1.03682086      -1.88304543       1.77057192
O       14.65152820       0.12778358       9.24972409       1.10020149       1.40377087       2.74287947       1.03554801       1.40394762      -2.69078842
O       10.21445950      11.59291502      15.77519248      -0.15737234       0.07531423      -3.45708819      -2.16370180       3.43115632       0.95153240
O       10.81060885      10.56273123      15.72639709      -0.31732106       0.58949549       1.69053763       1.23735687      -1.20970205      -0.39458636
O       15.82046295      12.80537475      14.24523750      -2.49744647      -1.31632608       3.80823412       0.30288759      -1.38157584      -0.06405642
O       15.64836161      13.41868672      15.30917547       0.28511108       1.86281508      -0.45450559       0.37959144       2.38526763      -0.02592533
O       15.26999277       4.26945487      19.05415805       1.12804878      -2.89995399      -5.56335423       1.91064588      -4.12863274      -3.47694212
O       15.83801357       3.04166922      18.05457332      -3.47368143       0.49791225       5.12116235      -1.92133535       4.17025310       3.31282916
O       16.08762847       7.74486079      12.74387645       0.42655113       2.65937016      -1.40669577       2.54147534       5.74864938       2.20640348
O       15.82963925       6.82259988      12.12346680      -1.30214750       0.42031361       2.29336020      -1.78402946      -5.50289202      -2.24796709
O        7.01086231      14.84437436      17.33958528      -0.31142988      -3.04224048      -5.24191316       5.57703107     -19.43849566       7.75439021
O        6.80150208      15.67902147      17.00455307       2.15003345       1.17947518       0.77337618      -7.17532566      19.86226797      -7.82048444
O       15.42779025       4.44361600      15.70892150      -3.63770711       1.01788872       0.67386140      -0.05949962       1.04285145       0.59284119
O       14.82732760       4.72765360      16.77071471      -1.34634860      -1.88880819       0.38187558       0.58546732      -0.39575581      -1.53293686
O       13.70336153       8.99089787      14.67960408      -1.67624876       0.76323072      -0.87011388      -1.16155834       2.23642357       2.53773448
O       13.31867306      10.03062674      15.36296389      -0.29293841      -0.26779831      -2.67733712       0.85767935      -1.57824845      -2.96546605
O        7.67881917      10.47165504      16.60946462      -0.97505840       0.18871714       1.03131075      -2.85265563       3.66478471       3.07217495
O        8.53691268       9.73073831      16.33012968      -0.08293126      -0.03525084      -3.56697005       3.36989316      -4.31709782      -2.16359759
O       15.71440308      20.41707210       5.34659486      -1.81566245       1.31515999       6.31939133      -1.78964103       0.62916343       5.14095014
O       14.92992301      19.99804462       6.76255242       3.01065154       0.91028085      -1.64797778       1.70774789      -0.92975955      -3.94000879
O       21.90823687      17.21530704      20.96767990       0.53529076      -1.00739359       1.65868010       0.84366698      -5.74070847       8.77710588
O       22.17270407      16.32641436      22.45632675      -2.07809923      -1.39849788      -3.70294670      -0.25560392       5.68386488      -8.51502025
O       16.55360251       8.16906508      15.54371640       0.96082876       2.02828179       0.35475946      -2.24117532      -0.80431186       0.89660719
O       17.59361286       7.53364593      15.63107808      -1.75314542      -0.85718574       0.07659865       1.42517435      -1.72359320      -0.39917590
O        5.58188232      13.22452260       7.50639221       0.96407215       1.69065218      -3.40872922      -0.87342779      -3.16851210      -1.49822123
O        6.30601470      13.96731024       8.13301950       0.47380392      -0.30619372      -0.45039210       1.41558176       2.69845811       0.79948019
O        7.05783846       8.41162745      18.26664604      -1.05291283      -1.02182928       0.95388431       2.17176405      -0.08115285      -0.14829832
O        7.43756684       8.48663722      19.46835554       0.81706314       2.72353346       1.22937349      -1.38482902      -0.39207663       0.22192194
O        4.10108308       6.91938278       8.43472460       0.03249802      -1.53123358      -3.25180318      -0.14333849       1.51896778      -2.91691579
O        3.44058665       6.27237552       9.24733534      -0.02680764       1.42842863      -3.24440134      -0.83526697      -0.09934263      -0.53414534
O       22.18396735      10.25470950      -0.22880762      -5.03649290       1.19164643       2.28609961      -3.99774297      -2.60271693       9.35689536
O       21.00132866      10.14225971       1.08362729       3.03769694      -0.18016584      -1.07175121       5.85123246      -0.70944784      -2.35657201
O       13.15179591      17.24129114      13.05830144       1.34358574       3.33251023      -0.92681426      -2.14542332      -0.70703614      -1.86865092
O       14.17918146      16.98832682      13.60058485       3.46093645      -1.70451347       0.06545959       1.33142976       0.00183903       2.10473105
O       10.42618788      12.87719488       7.49548065       0.60557402      -0.58760465      -0.55305077       1.01880936      -0.54399557       1.73581818
O        9.71688735      13.05359856       6.54454417       0.75091877      -0.50543888      -0.90759192      -1.70347363      -0.10656139      -2.71638216
O        6.42367140       9.30385205       9.10481453      -0.50481927       2.60035521      -0.30648818       2.56206516       0.11085922      -0.78568160
O        5.55824664       8.60400503       8.63453648       1.54751874      -2.19243168       1.05692740      -2.04845577      -0.02384227       0.33132059
O       17.46254553      16.18797334       8.11566163       1.26654391       0.47816136      -0.46504269      -1.11548185       5.44304892       4.50361855
O       16.89970122      17.35893943       9.23788207      -2.21437294       1.28564139       2.96960198       0.95041829      -5.26030519      -3.05201886
O        5.34012413       5.04896375       0.20287996      -1.90559702       0.77755683       0.51004730       1.21730486       1.69227359       0.26590193
O        6.59580121       5.35067236       1.13625754       5.91725550      -1.76444133       2.79750237      -2.71698336      -0.99468909       0.22229281
O       12.45766696       5.49638371       4.52956379      -1.63818964       1.95042396      -1.03999825      -3.20242106       5.84152192      -2.83531298
O       12.99760474       4.77228409       5.33137671       0.61822164      -0.07753357      -1.90917827       1.71387407      -4.95555550       2.85525161
O       10.97224771       5.35406208      10.17021233       0.18091851       1.36359118       3.42784034      -2.21023416      -2.90493433       6.29711952
O       11.25320625       5.74489167       9.12705680       0.72398424      -0.26927011      -2.18880144       2.72112164       3.29226235      -8.09358331
O        6.50463573      12.39321458       9.91050202      -0.23740516      -0.02594459       2.36001044      -2.31347496      -0.41721802      -1.15486325
O        7.63630820      12.69380664      10.22930602      -0.09081858      -0.71953200      -1.53487931       1.92355767       0.62608281       1.00373712
O        7.42965046      12.07463154       5.82747461      -2.21791962       2.22541455      -2.21613585      -2.28901709       1.17058027       0.69380368
O        6.46348379      12.87644903       5.59880986      -0.44068340       3.68864875       0.71891165       1.44411354       0.49569635       0.06539825
O        8.33736933       0.66287804       8.93142494      -0.83498871       0.47712090      -5.07784775       0.50936553       1.23387135      -7.69024090
O        8.52077413       0.84269142       7.21466896       0.55764532       1.56353422       5.97888658       0.51969815      -0.74225599       7.52409472
O       21.94313646      14.38758773      15.94097544      -1.20958722      -2.07668204       1.14629308       1.13455661       2.50627871      -2.73699966
O       21.51501619      13.51508315      16.61659611      -4.13727264      -2.41278047       1.57969704      -1.77406018      -4.92134993       2.82869726
O       10.87522961      16.15332070       8.95785168       1.15945114       1.00750861      -0.99609550      -3.49428844       2.06449320      -0.73561107
O       11.90470543      15.73484689       9.33779091      -1.14399179      -0.48177701       3.44820410       4.42507412      -1.41036039       0.53265609
O       12.82808453      21.51775203       1.36141133      -1.13397691      -1.96028576       0.25064828      -1.11236011      -2.14346414      -4.62532883
O       13.08592086      22.01332796       2.43857353      -0.25167480       0.56967535      -2.04721659       1.10831622       2.12744938       4.64621438
O        9.15361601      -0.14416045      13.78961273       0.49226491      -0.86598652       0.64726854       0.83104851      -3.77271226       1.00248994
O        9.04596736       0.99621211      13.26457005       0.96037579      -0.86531193      -1.06834788      -0.74411909       4.29926023      -0.99609077
O       12.01792551       7.43295144      14.79449285       1.03736893      -1.99366276      -0.31589172      -0.11723491       1.00549782      -0.91848702
O       12.38101159       6.97540849      15.86390680      -0.47110827      -0.31164950      -0.17515148       1.11025668      -0.09812335       0.60677145
200
Lattice="22.43773069742029 0.0 0.0 0.0 22.43773069742029 0.0 0.0 0.0 22.43773069742029" Properties=species:S:1:pos:R:3:momenta:R:3:forces:R:3 connectivity="_JSON [[0, 1, null], [2, 3, null], [4, 5, null], [6, 7, null], [8, 9, null], [10, 11, null], [12, 13, null], [14, 15, null], [16, 17, null], [18, 19, null], [20, 21, null], [22, 23, null], [24, 25, null], [26, 27, null], [28, 29, null], [30, 31, null], [32, 33, null], [34, 35, null], [36, 37, null], [38, 39, null], [40, 41, null], [42, 43, null], [44, 45, null], [46, 47, null], [48, 49, null], [50, 51, null], [52, 53, null], [54, 55, null], [56, 57, null], [58, 59, null], [60, 61, null], [62, 63, null], [64, 65, null], [66, 67, null], [68, 69, null], [70, 71, null], [72, 73, null], [74, 75, null], [76, 77, null], [78, 79, null], [80, 81, null], [82, 83, null], [84, 85, null], [86, 87, null], [88, 89, null], [90, 91, null], [92, 93, null], [94, 95, null], [96, 97, null], [98, 99, null], [100, 101, null], [102, 103, null], [104, 105, null], [106, 107, null], [108, 109, null], [110, 111, null], [112, 113, null], [114, 115, null], [116, 117, null], [118, 119, null], [120, 121, null], [122, 123, null], [124, 125, null], [126, 127, null], [128, 129, null], [130, 131, null], [132, 133, null], [134, 135, null], [136, 137, null], [138, 139, null], [140, 141, null], [142, 143, null], [144, 145, null], [146, 147, null], [148, 149, null], [150, 151, null], [152, 153, null], [154, 155, null], [156, 157, null], [158, 159, null], [160, 161, null], [162, 163, null], [164, 165, null], [166, 167, null], [168, 169, null], [170, 171, null], [172, 173, null], [174, 175, null], [176, 177, null], [178, 179, null], [180, 181, null], [182, 183, null], [184, 185, null], [186, 187, null], [188, 189, null], [190, 191, null], [192, 193, null], [194, 195, null], [196, 197, null], [198, 199, null]]" energy=-197.05902527394147 pbc="T T T"
H       -0.21728001       6.35224554      12.62853509      -0.32038633      -0.14438415      -0.21072530      -2.56815464      -2.41019286       3.12784100
H       -0.72308498       5.83847013      13.26125789      -0.37390113       0.18003609       0.36251119       2.35118103       2.67518979      -2.93798545
H       16.41107652       7.72857447      21.79380772      -0.37268390       0.14906272      -0.18774685      -1.62492834       1.99936326      -0.02575531
H       15.86065646       8.41054341      21.78408221      -0.25983866       0.04287410       0.67024367       1.62181764      -2.01536885       0.02953692
H        6.34266050      14.54997862      10.44329468       0.65082021      -0.11633029       0.27827871      -0.93201590      -0.63226876      -1.06834664
H        6.74306894      14.89363442      10.93122591       0.19671237      -0.12346840      -0.35437396       0.77845535       0.89335116       1.08417786
H       16.93076880      22.08736494      14.66943691       0.14867765       0.33359410       0.36508294       0.04163747       3.41090270       0.02838701
H       16.95666022      22.87203344      14.39080861       0.02529239      -0.42277750      -0.11036159       0.17502487      -2.10566147       0.68891022
H        4.32809879      12.42949732      13.77697849      -1.29350618      -0.08581211       0.97970272      -1.40847155       0.20849806       0.30679407
H        4.45464894      11.68007520      13.74931404      -0.58333774       0.48734679      -0.40540045      -0.55944601       0.78076167      -0.60565432
H       10.10358891       5.59970335       7.46265263       0.06995483      -0.53402849       0.21378669      -2.28130515      -0.45808626      -0.53771235
H        9.31668776       5.29830353       7.21052704       0.20349231      -0.03374569      -0.18373954       2.51150201       0.84933793       0.71003147
H        2.96754201      11.68031387      13.48766912      -0.44920569      -0.15855154      -0.13110360       1.12325928       1.45302576      -0.31982688
H        3.38326524      12.32818483      13.15939730      -0.15061966      -0.36338644       0.39736739      -0.80662341       0.19114819      -0.02066845
H        8.23090201       3.18366616      13.81859783       0.27434960       0.26023300       0.32196008       0.03578941      -0.02973027       0.53605375
H        8.38662041       2.87779023      14.58399402       0.57832900      -1.11826935      -0.48459669      -1.02683681       0.40543288      -0.95036304
H        5.59516451      11.19998688      16.62378321       1.11404285      -0.23059402       0.30412090      -0.07509134      -3.05882498       0.35669417
H        5.64295748      10.28528924      16.55418535      -0.89970915      -0.58006124      -0.37372604      -0.52129940       3.77312002       0.02129004
H       11.11651873      12.69572982      15.52772040      -0.93562904       0.01785045       0.23787533       0.47405138       3.60689759      -3.37790220
H       11.02328120      13.50803377      14.98010276       1.23989919      -0.59270310       0.49203202       1.57329575      -3.65496796       1.75288600
H        9.48634015       1.23579912       1.16025737      -0.28454854       0.49914166      -0.38850125      -0.28944122       0.97691231      -0.82786069
H        9.00708694       0.71913163       1.53121429       0.54737438       0.47686153       0.22239420       0.96644746       1.65262643      -0.17068662
H       19.44373731       3.33252290       3.36450820      -0.67427637      -0.22955094      -0.13507716       0.91774038       3.46096799      -2.41506901
H       19.79741628       4.12818002       3.05699769      -0.22955598       0.97209934       0.75342635      -1.41812173      -2.99404476       2.51726383
H        9.54296734       2.58689306      12.28200241       0.50927878      -0.32115254      -0.26815817       1.06747364       1.01066731      -1.73126116
H        9.55926634       3.12718379      11.67033521       0.22042936      -1.41270810      -0.70188844      -0.21271259      -0.12061761      -0.87196494
H       13.33668518      19.80005471      11.02541139      -0.02477672       1.17201749      -0.09297649      -0.60831635      -0.34279410       2.54701036
H       13.07920563      19.36919339      11.75234785      -0.40738815       0.27203215       0.23557971       0.18306229       2.01790937      -2.43171722
H       15.61805033      21.63337888      21.21876366       0.57456467      -1.50030175       0.01762927       0.20640921      -0.53146199      -0.77177859
H       15.75025949      21.30954248      20.44079742       0.74658436       0.09872604      -0.34912349      -0.88813715       0.77232116       1.58629954
H       21.89343413       6.97619578       0.03632132      -0.54703384       0.73989623      -0.04974132       1.89476525       8.30562149      -0.45319889
H       22.22252669       8.00814417       0.02144839       0.92136987      -0.21831977       0.03125986      -0.65129353      -8.09183885      -0.26798809
H       10.84513597      21.88053020      14.89508183       0.33586001      -0.84192240      -0.05679768       1.61161637      -0.94952903       1.22338104
H       11.29565731      21.43567538      15.43490342       0.13639162      -0.09367183       0.36589715      -0.08806590       0.93731692      -1.77960317
H       16.79025929       5.46758885      24.04396917      -1.12578741      -1.86254676       0.74379176       0.42203222      -1.07001588      -0.72374722
H       16.91457117       5.12278303      23.35615596       0.05979450       0.69380259       1.00154539       0.33175004       0.50160119      -0.82971065
H        8.16963838      13.01148851      13.76548709      -1.05186033      -0.29907813       0.02591950      -0.25811597       0.30326942      -0.05687800
H        8.08389955      12.65436496      13.07983784       0.64019949      -0.59151595       0.16396688       0.89574052       0.42522842       0.02873703
H       17.11626312      10.01511121      13.34444714       0.39621596      -0.60302240      -1.59772084       0.59396077       1.82980673      -0.45791606
H       17.11580904      10.67456092      12.84376067       1.07142312       0.33916184      -0.73484158      -0.78053197      -1.42813267       0.49729804
H       10.58153961      15.23609237      10.03230695       0.63994932       1.09146502      -0.62161563       0.43187019      -0.41995959       0.45124518
H       11.08216963      15.40514317      10.63801543       0.16677438       0.32567791       0.57680848      -0.54660492       0.97900175      -0.97680621
H       11.92307100       8.15360464       5.05144464      -0.08888561       0.02205025       0.02503408      -1.54110093       1.27894830      -0.15337979
H       11.35450031       8.74731049       4.95709730       0.45383090       0.29539970       0.47787876       0.54980823      -0.72529286       0.35124270
H       22.95170354      -1.06506756       3.11808168       0.68537888      -0.27627542       0.79448396       0.30570740       0.57797435      -0.09563926
H       22.25348552      -1.33211678       3.35735723      -0.06596684      -1.42322635      -0.12000136       0.47303200      -0.06192621      -0.17126343
H        0.83079130      22.19624053       7.64952095      -0.51286072      -0.07912548       1.83089359      -2.50180620       3.25165280       1.93028720
H        0.42348394      22.90406602       8.10965656       0.61811371       0.46095521       0.69944319       1.99809821      -3.15647042      -1.13530273
H       11.30982161      20.12093675      11.00760189       0.41725975      -0.31020559       1.03607015       3.51494357       3.13664096      -0.46190443
H       11.96479873      20.79268867      10.84112999       0.03455061       0.45134494      -1.21277060      -3.01892307      -3.80903308      -0.15411004
H        1.38864281      18.09539070      11.82850607       0.46794948      -0.46155020       0.65726121       0.05928342      -0.89552443       0.03880604
H        1.88018604      17.54111158      11.45053407      -0.38058882      -0.16281153      -0.21175745      -0.67719207       0.17231741       0.28127097
H       21.34867766      12.58256011      12.68514811       0.66723114      -0.20304465      -0.10537921      -0.82514515       0.49083882      -4.13520844
H       21.17230213      12.54587230      11.79189921       0.04894387      -0.00209426       0.02099284       0.92451389      -0.59278433       4.14778797
H       14.76506131       6.60409232      13.98580673       0.76172409      -0.74095776      -0.37952107       6.91962396       1.02946225      -1.01700109
H       15.76435116       6.71870509      13.79813101      -0.03331414       1.00665212       0.69829789      -6.61229781      -1.50967300       1.22430183
H        9.52134610      15.70571218      10.78518004       0.98427031      -1.23540881      -0.31453710       4.36566500       1.28497689       1.12593207
H       10.29315233      16.06768034      11.21179948      -0.30386978      -0.46843897       0.92124099      -3.35845593      -2.19056572      -1.68138386
H        1.16230211      17.93384552      18.62100486       1.24560809      -0.88260073       0.13388352      -0.02256303      -1.06003315      -0.37040206
H        1.84106333      18.12380558      18.87276104       0.30989272       0.82418788      -0.36906714      -0.33152821       0.55894737       0.11544716
H        6.09774957      10.00474121      10.55886871       0.31146869      -0.05555513      -0.53998731       3.74811867      -0.62261758       4.27388399
H        6.55094024       9.98980025      11.41822173      -0.45727117       0.88999995      -0.17419401      -2.61929513       1.34621535      -4.78403598
H       -0.99652473      16.10024883      11.69304756      -0.70822497       0.55680114       0.89016677      -2.90086410      -4.56039521      -0.36340684
H       -1.51587995      15.29760776      11.68968487      -1.47754369       0.19228198      -1.46149707       1.92079610       4.15257762       0.86977025
H       21.34325834       1.21362476      14.77600278       0.41014176      -0.01331897       0.27236916      -0.17773881       0.10943780      -0.04291193
H       21.40273472       0.75773278      14.11366008      -0.32148006      -0.03206925      -0.29425567      -0.59709654      -0.37300416       0.20667179
H       19.77211261      13.30125813      15.45555569      -0.28918108       0.46740807       0.40111179       0.47084688      -0.00494975       1.50900582
H       19.07888443      13.60170646      15.44200880       0.62479976      -0.04086435       0.72485575       0.06668081      -0.14381107      -0.11413922
H       21.73602965      12.04166759       8.97026065       0.46144753      -0.32319147       0.20043059       1.40549869       1.85470969      -1.63651672
H       22.29981932      12.31724762       8.32962398      -0.47793112      -0.38439052       0.13493507      -2.40841382      -1.37588678       2.00649811
H        1.71146316      14.79139144      10.74965962      -0.05497211       0.72336767      -0.47807691       0.03915729       1.20391236      -0.39768085
H        2.03347707      15.39648630      10.29156627      -0.37291312       0.57091138      -0.36471762       0.57901475      -1.44789694       0.36434634
H       13.72449935      14.73597075      12.79153624       0.62605538       0.64788495       0.21443318       2.23036288      -2.46336983       5.82867776
H       14.05356886      14.40103357      13.68229976       0.32536735      -0.14499776       0.08775661      -2.75132996       2.10346307      -4.84854248
H       14.52938088       1.08006870      14.01049801       0.78657271      -0.49400230       1.21249385      -1.07130419      -4.20237867       1.43932402
H       14.33288247       0.25071008      14.37409158      -0.42057098      -0.11671306      -0.76490855       1.65019066       3.56817705      -0.76076109
H       18.96469979      10.53679277      12.64854907      -0.38209129      -0.67367285       0.65165760      -0.17491306      -2.40250937       0.43686903
H       18.80334373       9.70038160      12.48553485       0.13872397      -0.06560210       0.12538316       0.28633360       2.01036014      -0.27342554
H        4.22829472      14.80838499      14.82848413       0.37953896       0.69650749       1.11758967      -1.07290018      -1.38537707       0.81085631
H        3.29909102      14.76597827      14.77668240       0.72728168      -0.36197003       0.21629015       3.67489933       0.95655114      -0.56760419
H       -0.85221449       6.38032821      14.42331445      -0.65754409       0.24127769      -0.39275079       0.90894026       0.95061211       0.97626782
H       -0.55427837       6.97898365      14.90422539      -0.31975427       0.03717575      -0.63147032      -0.95715486      -0.51126318      -0.78816614
H        6.43798420       9.26273164      21.87933793       0.20154353      -0.27048343       0.21657407      -1.50818008      -0.82304928      -1.25280940
H        6.98237605       9.69271735      22.13111691      -0.33984246       0.41774681      -0.44381138       1.61806782       0.10208724       1.22080691
H       11.84958051      -0.59178956      13.01140511      -0.13393328       0.04551266      -0.11037333      -1.20388617      -2.83940019      -1.19407182
H       12.13803548       0.02737142      13.16071404      -0.13561661      -0.43962886       0.79092769       1.68213247       2.01767278       0.58889044
H       21.53378202      10.43434855      14.86523955      -0.35194919       1.08596525       0.49530851       1.81864309      -0.19641160       0.62739823
H       20.81772567      10.35228206      14.63144919       1.25702455       0.19683838       0.49347404      -1.04664090      -0.73024012      -0.09864841
H        8.92098091      11.22886667       8.94967915      -0.23479829       0.02308721       0.49399540       0.96800172      -0.39593830       0.08771288
H        8.95772247      10.48308043       9.10481092       1.10363166      -0.09364731       0.11030409      -0.01495007      -0.33148749      -0.34583051
H       10.17700077      11.91941804      14.20466776       0.66838152       0.56307431       0.05255602      -1.27136856       0.13805900       0.07525481
H        9.35322283      11.81283499      14.29988777       1.15265252       1.19538523      -0.01175600       1.41853779      -0.20730615       0.64053283
H       -1.03357788      22.21348564      17.28673436      -0.78360796       0.93500515       0.17271213      -1.03274978      -0.62970424      -1.26632204
H       -1.17583443      21.92075683      16.53098654      -0.57077188      -0.69811086       0.94071780       0.38210554      -0.28296549       1.55048466
H       16.85377523      13.39246439       9.32693518      -0.23119293       0.45876984      -0.43896087      -0.64782660       1.39618319       0.40996086
H       16.67529753      13.89262404       9.96541478      -0.19879288      -0.69599905       0.00666880       0.49821831      -0.99330240      -0.33102067
H       11.95430214      12.40723674      12.03884714      -0.82444608       0.43898956      -0.25752801      -0.62071037      -1.85207815       0.08498078
H       11.66781922      11.58513474      12.10438054      -0.30317268      -0.00541389      -0.23841601      -0.10679494       1.84701706       0.04137927
H        6.56718667       7.24754761      11.59489500       0.49824359       0.88116877       0.67508065      -1.11307575      -1.14693151      -1.08070329
H        5.95822178       7.31022577      10.97992291      -0.94550288       0.24906582      -0.42345260       1.74684082       0.75188101       1.70168828
O       12.41801467       0.92869225      17.19745929       4.81179949       0.79370103      -0.12069140      -0.14865325      -0.24615118       0.53834769
O       11.25952430       1.05178094      17.54439782      -0.94072411       1.68646373      -1.55411549      -0.11373965       1.49367233      -0.63860323
O        1.19853812      21.96941520       8.22112463      -4.70866532       0.76895916       4.78303825      -3.05153291       0.88272148      -1.49911408
O       -0.19497461      22.27283657       8.87024002       4.65302272       0.79566087      -4.27766770       2.44498385       1.28908056      -0.55910786
O        9.67484880      10.99482910      12.18829246       1.10619555      -4.72306502       0.08385465      -0.16747348      -0.51188178      -1.21681076
O        9.99485683      11.51297859      13.24305408      -0.42523508       1.06816978       0.26248497      -0.34917389       0.11898925       0.84965329
O       14.85506922      19.99943607      -0.06876816       2.30643154       0.59657860      -0.96643313      -0.52304676       3.15283519      -3.44345478
O       14.86493731      18.95804661       0.58950360      -2.68498096      -1.30543774      -1.93044618       0.38164017      -5.31239846       3.93780000
O       13.28690181      14.23689226      16.22499759      -2.71792588      -0.44361832      -1.94379602      -0.88357741      -1.95898979       3.36605811
O       12.77411388      14.97776442      17.11952809       0.69388043       3.22720265      -0.42278126       0.87925542      -1.47564306      -2.66136204
O       10.67293932      21.93126824      21.19512431      -0.76895809       2.81079803      -0.18341653      -2.86349560      -0.21249795      -5.39804522
O       11.16466031      22.45955927      22.20958842       2.47103855       1.04051254       3.87065637       2.51863095       0.66830982       3.82896714
O        9.84895933       8.60249333      11.48521048       2.62857929      -3.15657286       0.44998184       1.75942332      -1.91256985       1.77668438
O        9.61357812       9.44575000      10.66333255       0.26092939       2.13315457      -2.79915062      -1.13061092       3.30887372      -1.98112105
O       18.23819129      17.65538228       5.49849813      -0.19414942       1.65298301      -6.33598952       0.82167570      -1.47595333       2.30882458
O       17.77301249      17.77412669       4.02593311       1.13533728       1.91062048       6.11949060      -1.89528910       1.87734681      -2.02275196
O        8.83269142       4.49001169      21.91940595      -0.55000593      -0.89570915      -0.02794762       2.19297065       6.91315767      -2.06027404
O        8.38258096       3.39522012      21.84466474      -3.29370086      -2.09499270      -1.04883914      -3.75318026      -6.44800270       0.89995924
O       21.92713711      13.98917617       1.22461104      -0.90087182       1.81554778      -4.90347494      -1.91212880      -3.68205430       3.25870614
O       22.37446276      14.79782785       0.07827568      -2.74679664      -0.71443575       5.51618260       0.83623197       3.00964134      -3.81382033
O       16.51999110       7.69038580       4.04023058      -6.49076436       2.04363352      -1.17286268       0.56493467      -0.72582060       0.91797988
O       15.91936304       7.44575931       4.32505823       4.91095232      -4.26451393       3.77974262      -0.49374887       2.86870136      -0.50580945
O        5.43626013      14.38104409      21.96190567       6.06973566      -0.25506757       0.89997064      -3.99765648       3.22545456       0.76441664
O        6.79960962      13.98790428      21.67930056      -2.98418003       1.75047988       1.97824054       3.48457347      -3.76754696      -1.81178139
O       11.90829512      17.20532937      15.39328157       0.17661340       3.63185630      -1.21032532       1.35114428      -0.21460835      -0.07808456
O       10.99383521      16.37459958      15.25914441      -1.13530609       0.42125619       3.19288113      -1.14789156       0.53519859       0.85460520
O       19.08915627       3.42608777      10.69622918       6.36317402      -5.76831535       0.33087511       2.81790521      -1.76113395       1.08110844
O       20.34305378       2.38806604      10.91292734      -4.11699178       2.55601303      -1.54179255      -2.86631823       3.28420101      -1.86275283
O       22.28296340      12.70404545      20.67381270       2.47011037      -2.38404753       4.83540310       1.01276770      -3.56983091       6.42052693
O       22.68611852      12.32396860      22.28562928       0.92800388       0.93042056      -7.60103499      -0.39600470       2.01152309      -6.10535669
O        5.94955683      14.68529771      13.80934832       0.62626727       2.11882043      -0.16576650       3.34351222       0.48502018      -2.42816220
O        5.60587156      14.65945767      14.99319772      -3.09663529      -1.94559598      -0.34386952      -5.72652113      -1.42083743       0.86116556
O        5.94160614      21.93240210       0.57409413       1.06718356      -0.64149026       0.83816587       1.00421186       1.28465545      -2.36106955
O        5.56534024      21.90618985       1.74127196       0.13960699      -2.21706740       1.10541428      -1.12767443      -0.70610361       2.70169754
O       18.73239888       8.26492477      11.56397062       0.56132433       2.39119335       1.27147652       2.77519532      -1.20208737       1.06505797
O       17.75091117       8.95387069      11.53833448      -1.42549881       0.19398507       0.57855425      -3.34580280       1.45747414      -0.05133911
O        7.88392409      16.78136255       1.20367389       1.02871596      -0.31250454       6.79240571       0.08671652      -0.24848314      -0.07601551
O        8.07741528      16.75601077       2.75825505       2.88475449      -4.54758490      -6.61459041      -0.41111134       0.83002856       0.13382336
O       15.63354947       0.66795334       8.57306805      -1.94070420       1.90303153      -1.88893007      -3.06611295       0.17715634       4.54104217
O       14.67159179       0.14727711       9.28513859       1.58799617       1.58449049       1.97172592       4.72889907       1.17337010      -4.13215036
O       10.20807893      11.60210906      15.72230823      -0.52787436       0.98850035      -3.22718015      -0.04143865       2.29797937       0.15187874
O       10.81080517      10.56599959      15.75162589       0.49738660      -0.12980383       1.64309460      -0.40153039      -3.00004829      -0.91816170
O       15.78012575      12.77929274      14.30831803      -2.76572642      -1.71936697       4.07494469       0.10779449      -1.15526565      -2.07600188
O       15.65196247      13.45000633      15.29734819       0.48137039       1.67016753      -0.89197148       0.16948212      -0.90350043       3.31521915
O       15.29117021       4.22097431      18.96595560       1.46889199      -3.43612184      -5.67787985      -0.68579693      -0.21626618       1.33207656
O       15.78386534       3.05381508      18.13352675      -3.48735861       0.97794020       4.69855801       0.65154005      -0.09871972      -1.90858706
O       16.09914624       7.79372215      12.73395839       1.53112711       3.70015726      -0.34071393       0.37395442       3.09803053      -0.22607556
O       15.80115419       6.81526296      12.14962915      -2.25439689      -1.07357342       1.23589438      -0.95601308      -2.26086937      -1.29232215
O        7.01775081      14.76554027      17.27471430       1.30273682      -6.79721271      -3.37209461       2.80470232     -13.94207353       5.57502604
O        6.82154736      15.73550902      17.00524702       0.50924057       5.50203078      -0.57159598      -2.19662168      14.67856860      -5.33427580
O       15.36574938       4.45796319      15.72266859      -3.92751319       1.16578947       1.34422083       1.57865204       1.07223273      -2.01764274
O       14.80543788       4.69643506      16.77532837      -1.33150376      -2.21729360       0.23511475      -1.69188381      -0.85506928       2.20811538
O       13.67716383       9.00601263      14.67166892      -2.03821296       1.40411836       0.20364036      -0.38494159       1.84532845       1.43336121
O       13.31465787      10.03109790      15.31358561       0.04651675       0.11138613      -3.67108533       0.88642627      -1.87674877      -2.08031438
O        7.65692057      10.47960323      16.62500669      -1.78750246       0.68735350       1.05646924      -1.09016223       0.09241144       0.71405908
O        8.54106346       9.72510756      16.27416437       0.71097594      -0.65172276      -3.95227785       1.01000263       0.49648283      -1.80896292
O       15.68126537      20.43953069       5.45216499      -2.04714843       1.92673559       7.23943688       1.41561819       1.49999573       0.43396122
O       14.98094686      20.01463205       6.73105129       3.43286471       1.50947516      -2.48678278      -2.19395672      -0.96587665       0.01416825
O       21.91672646      17.18948900      21.00191445       0.49878456      -2.15608207       2.84258827       1.20620065       0.10117525       4.45324208
O       22.14171891      16.31277894      22.38396289      -2.29199853      -0.51132201      -5.20949913      -1.64737580       0.26714422      -3.01217434
O       16.56068703       8.20259297      15.55155306      -0.21172415       2.25147936       0.90841385      -1.56604095      -1.25816976       0.85532407
O       17.57057832       7.51905899      15.63131658      -1.10244442      -0.89433341       0.07769871       1.70457583       0.98218510      -0.28349867
O        5.59316236      13.24036911       7.45228040       0.22248938       0.72909833      -3.41352215       0.82772075       0.19859927      -0.86134384
O        6.31703538      13.96970770       8.13068946       1.02079442       0.57049861       0.01444385      -0.04270614      -0.09846410       0.55466857
O        7.05056645       8.39175691      18.28504469      -0.12742419      -1.13641790       1.50502515       0.37493353      -0.35554625       2.09590505
O        7.44974044       8.53127759      19.48512470       0.74577404       3.22765523       0.64109912      -0.51695642       2.01063667      -2.40803310
O        4.09388073       6.90253088       8.38204533      -0.77880159      -0.35118646      -3.40466912       1.63529799       0.97952148      -1.73679937
O        3.44367444       6.29191454       9.19304755       0.22148216       1.22635856      -3.70275404      -2.04447275      -1.83022006       1.66440264
O       22.09550066      10.26706468      -0.18746104      -6.57393322       0.91861552       2.89264304      -4.84477785       1.72701095       1.02822606
O       21.05743288      10.13783207       1.06446693       3.96875455      -0.31291629      -1.45668521       4.34343622       0.78711611      -4.61513274
O       13.16960673      17.28829595      13.04057151       1.40583716       2.95988917      -1.07469428      -0.48581724      -0.03206180      -3.25224791
O       14.22791428      16.95924103      13.60552352       2.98852855      -1.93798862       0.49662237      -1.12655368       2.82817958      -0.68847828
O       10.44432938      12.86985237       7.48915763       1.66913095      -0.84085143      -0.28525975       2.15698600      -2.81291463       0.84051682
O        9.72940030      13.04799662       6.53012330       0.68247651      -0.32473575      -1.11794248      -2.62369503       0.27247720      -0.35661073
O        6.41588970       9.34840288       9.10392135      -0.47402204       2.73632679      -0.04492039       0.80805747      -0.99476033      -1.14744336
O        5.58047391       8.57398783       8.64871261       1.19500310      -1.58918683       1.01910999      -0.44561997       0.07898776       1.06660518
O       17.47735676      16.20587836       8.12326938       0.31598665       1.94065091       1.42185872      -3.57440516       5.83151157       5.01043042
O       16.87083452      17.37490955       9.27110298      -1.88483688       0.43686085       1.48912868       3.50991150      -6.24647249      -5.88694690
O        5.31666918       5.06271416       0.21500074      -0.90763550       1.08040931       0.95128632       5.71116258       2.00070888       2.96881278
O        6.68217598       5.32031072       1.18007244       5.16577782      -2.67111014       2.96515912      -6.58440905      -1.01508251      -1.35493560
O       12.42795499       5.53297605       4.51150001      -2.17109161       2.57820819      -1.15986431       0.10668908       1.95801092      -0.66842989
O       13.00212629       4.76769376       5.30145044       0.06815995      -0.58676964      -2.10598470      -1.80493739      -1.26891757       1.78614674
O       10.97838294       5.37404987      10.22895443       0.67979130       1.21843515       3.80487552       0.16109784       1.77913620       0.88684815
O       11.26413089       5.74136965       9.08571137       0.52224441      -0.36665466      -2.83691440      -0.88449442      -0.29804050      -1.68266236
O        6.50455532      12.38385611       9.94691022      -0.01946800      -1.22000448       2.18600463      -1.88654864      -1.44818909      -2.40687161
O        7.64514092      12.68173711      10.20796328       0.93368160      -0.85417877      -1.40560051       2.58240683       0.85196635       1.37656628
O        7.38860081      12.10912667       5.79682895      -3.19059154       2.37438511      -1.42836723      -0.33933625       1.03481133       0.19792497
O        6.45960191      12.93114219       5.61152717      -0.22200726       3.46841822       0.71314555       0.67111614      -0.45660484      -1.39079687
O        8.32495681       0.67681512       8.84371665      -0.52563456       1.31198763      -6.53835629       3.41959344       2.21209364     -21.45094073
O        8.52537128       0.86797977       7.32293646      -0.20450827       1.49442562       8.98231619      -2.52278953      -5.28916644      21.16686745
O       21.93420619      14.36035025      15.95928065       0.03157818      -1.88197012       1.07956857       1.55695310      -0.15093480      -0.43387624
O       21.44959395      13.46789449      16.64599297      -4.56682243      -3.31518836       2.08257340      -1.85379767      -0.59556551       0.72100263
O       10.89588199      16.17397694       8.94497835       1.23196920       1.61232158      -0.64442354      -2.77329295       1.24759354       0.27561763
O       11.89470598      15.72488522       9.38850841      -0.11353027      -0.81770510       3.15234538       3.29376636      -0.28054055       0.84380942
O       12.80886116      21.48800981       1.35165552      -1.51991261      -2.07797143      -1.15387247      -1.24672594      -1.99428081      -4.92562128
O       13.08957297      22.02312270       2.41616378       0.49946245       1.07113595      -0.81033824       1.09078569       2.11918537       4.41587910
O        9.16077811      -0.15385676      13.78998112       0.47484559      -0.20566413      -0.41627289       0.18238540       0.78110422      -1.60732122
O        9.06034587       0.98285650      13.25423755       0.84052875      -1.10748269      -0.60451597      -0.49640564       0.22404852       1.30961771
O       12.02932588       7.40369471      14.79202672       0.48555012      -2.33395776       0.10282885      -0.40427314       1.95430277      -3.05637620
O       12.37365421       6.96875600      15.85936753      -0.66346706      -0.70313826      -0.46979239      -0.02112908      -0.26255960       2.91865264
200
Lattice="22.43773069742029 0.0 0.0 0.0 22.43773069742029 0.0 0.0 0.0 22.43773069742029" Properties=species:S:1:pos:R:3:momenta:R:3:forces:R:3 connectivity="_JSON [[0, 1, null], [2, 3, null], [4, 5, null], [6, 7, null], [8, 9, null], [10, 11, null], [12, 13, null], [14, 15, null], [16, 17, null], [18, 19, null], [20, 21, null], [22, 23, null], [24, 25, null], [26, 27, null], [28, 29, null], [30, 31, null], [32, 33, null], [34, 35, null], [36, 37, null], [38, 39, null], [40, 41, null], [42, 43, null], [44, 45, null], [46, 47, null], [48, 49, null], [50, 51, null], [52, 53, null], [54, 55, null], [56, 57, null], [58, 59, null], [60, 61, null], [62, 63, null], [64, 65, null], [66, 67, null], [68, 69, null], [70, 71, null], [72, 73, null], [74, 75, null], [76, 77, null], [78, 79, null], [80, 81, null], [82, 83, null], [84, 85, null], [86, 87, null], [88, 89, null], [90, 91, null], [92, 93, null], [94, 95, null], [96, 97, null], [98, 99, null], [100, 101, null], [102, 103, null], [104, 105, null], [106, 107, null], [108, 109, null], [110, 111, null], [112, 113, null], [114, 115, null], [116, 117, null], [118, 119, null], [120, 121, null], [122, 123, null], [124, 125, null], [126, 127, null], [128, 129, null], [130, 131, null], [132, 133, null], [134, 135, null], [136, 137, null], [138, 139, null], [140, 141, null], [142, 143, null], [144, 145, null], [146, 147, null], [148, 149, null], [150, 151, null], [152, 153, null], [154, 155, null], [156, 157, null], [158, 159, null], [160, 161, null], [162, 163, null], [164, 165, null], [166, 167, null], [168, 169, null], [170, 171, null], [172, 173, null], [174, 175, null], [176, 177, null], [178, 179, null], [180, 181, null], [182, 183, null], [184, 185, null], [186, 187, null], [188, 189, null], [190, 191, null], [192, 193, null], [194, 195, null], [196, 197, null], [198, 199, null]]" energy=-85.78005085153407 pbc="T T T"
H        0.07900000       6.07600000      13.30200000      -0.23953473       0.22294472      -0.26058886      -0.15852009      -0.11063149       0.82677783
H        0.21800000       6.17300000      12.57700000       0.08600971      -0.19144299      -0.15930461       0.15850727       0.11060274      -0.82681171
H       16.33700000       8.45300000      21.65100000      -0.35469692       1.15800285      -0.40242249      -0.47701056       0.57057729       0.41082421
H       16.75500000       7.95300000      21.29100000      -0.45289720      -0.46491680      -0.40584832       0.47699897      -0.57057913      -0.41081366
H        5.32100000      14.97900000      10.48500000      -0.50630119       0.04696486      -0.09524552      -0.36858306       0.64979970      -0.51940679
H        5.62600000      14.43800000      10.89700000      -0.14084321       0.03204695      -0.75126297       0.37944232      -0.67862317       0.48598477
H       17.25100000      22.39200000      13.61000000      -0.41853642      -0.16429236      -0.16059065       0.46099620       0.03692643      -0.69371679
H       16.83900000      22.35900000      14.23000000       0.36930832      -0.01086710      -0.05360668      -0.46098130      -0.03692233       0.69372239
H        5.57100000      11.44200000      13.12000000       0.11171504       0.11477649       0.09514979       0.34924457      -0.70936872      -0.26748226
H        5.25900000      12.07600000      13.35700000      -0.00229966       0.05438633      -0.72570035      -0.34961928       0.71217997       0.26474951
H        9.84200000       5.64800000       6.86200000      -0.06946855       0.51646301      -0.11633954       0.37653653       0.14222249      -0.79112317
H        9.53300000       5.52900000       7.52900000      -0.36726074      -0.08689981      -0.75247798      -0.36182085      -0.14240512       0.81083951
H        3.15500000      11.32900000      13.00600000       0.40682923      -0.28665262       0.78395602       0.04420802      -0.82159566       0.19763064
H        3.11600000      12.05200000      12.83200000       0.34264130      -0.38836897      -1.18686992      -0.04438918       0.82140306      -0.19778463
H        7.49100000       3.80600000      14.65700000       0.10666387      -0.43049530       0.32738246      -0.21580301       0.03624764       0.80463685
H        7.68400000       3.77300000      13.93800000      -1.02214291      -0.08602756       0.27814415       0.21603441      -0.03810926      -0.80434538
H        5.56900000      10.86400000      16.12600000       0.08173111      -0.29036634      -0.29386963       0.50526317      -0.65943439       0.24387231
H        5.13700000      11.43700000      15.92400000      -0.27820489       0.19991133      -0.02301973      -0.49121457       0.65595181      -0.22339035
H       10.65900000      13.08200000      14.67700000      -0.28542666       0.75756368      -0.37504756      -0.91450714      -0.19949303      -0.60215667
H       11.26700000      13.16100000      15.10100000       0.49257328       0.18239428       0.56178430       0.88272068       0.06572394       0.66373493
H        8.71000000       0.08400000       0.44700000       0.11284110      -0.47478296       0.21509429      -0.04833614      -0.89842436      -0.09069731
H        8.76500000       0.82400000       0.51400000       0.46685602      -0.42144954      -0.00530940       0.06919117       0.89254701       0.07659949
H       20.53800000       3.42700000       3.10800000       0.02746398      -0.20865038      -0.09004657       0.08833597       0.72326250       0.38316245
H       20.45800000       2.77200000       2.76100000       0.00840033       0.13805471      -0.08935258      -0.08833625      -0.72326239      -0.38316308
H       10.09800000       4.94600000      12.38500000      -0.00551732       0.09157149      -0.02576477       0.67793036       0.51960455       0.08757448
H        9.51000000       4.49600000      12.30600000      -0.34160728       0.26565159      -0.50919482      -0.67600392      -0.51835110      -0.09298338
H       13.94800000      18.29800000      11.71600000      -0.21179169      -0.08385876      -0.25098327       0.73891202      -0.14934426       0.63936539
H       13.36500000      18.38000000      11.25900000       0.26938794      -0.26043457      -0.13990264      -0.73220417       0.10201688      -0.58193091
H       14.35300000      22.35000000      20.72500000       0.88125500      -0.44534200       0.03349893       0.07029958      -0.10038587      -0.85270310
H       14.29100000      22.43600000      21.46200000      -0.55396590       0.41837085      -0.87793568      -0.07382152       0.09824092       0.85633862
H       22.04400000       7.24200000       0.60800000       0.11164824       0.27774509       0.48530526      -0.42967352       0.20834645       0.68198967
H       22.42900000       7.05700000      -0.00300000      -0.42140843      -0.25693525      -0.10650110       0.42928964      -0.20528386      -0.68087944
H       10.90400000      22.21700000      15.02900000       0.01300852      -0.47300101       0.05075671      -0.32970222      -0.28060749       0.90560201
H       11.13100000      22.43300000      14.35300000      -0.01204952      -0.56402401      -0.13393995       0.27228425       0.29848496      -0.91300736
H       17.86500000       5.66600000      22.47500000       0.31899648       0.18531184       0.36802675       0.47246960      -0.69184109       0.02137637
H       17.44500000       6.28100000      22.45600000       0.19640745       0.15119285      -0.54187282      -0.47249570       0.69185089      -0.02137087
H        8.74100000      13.65600000      12.89400000      -0.25339596      -0.28986580      -0.27736764       0.40442205      -0.68337567       0.47861611
H        8.40300000      14.19000000      12.49900000      -0.53109544       0.57423801       0.56438253      -0.42355367       0.63273585      -0.47047247
H       15.68100000      10.23600000      14.95000000       0.18315140      -0.07977392       0.03795498      -0.70134079      -0.07151464      -0.86067388
H       16.10100000      10.26400000      15.56400000       0.32944776      -0.31608736       0.23434244       0.60631615       0.02566630       0.88751209
H       10.30100000      14.12000000      10.70600000      -0.11262351       0.59592927      -0.00305071       0.62122495       0.62867109      -0.26123457
H        9.80000000      13.60400000      10.90100000       0.31474969       0.16139211      -0.19663821      -0.62394358      -0.66665896       0.22274462
H       11.72800000       8.50700000       5.29800000      -0.49635193      -1.57734468       0.04069253       0.65387929       0.52589262       0.05600792
H       11.14900000       8.04100000       5.24800000      -0.30997688       0.50667384      -0.79280462      -0.65290493      -0.52590481      -0.05702928
H       22.26900000       0.03000000       2.82800000      -0.33734966      -0.17991920      -0.49139485      -0.07356684      -0.05517294      -0.85047301
H       22.33300000       0.07800000       3.56800000       0.82197592      -0.59489324      -0.30336795       0.07352204       0.05515659       0.85020939
H        0.00400000      22.20300000       6.25600000      -0.56711228      -0.49572550      -0.07891530      -0.55030917      -0.29198065       0.72737353
H        0.45300000      22.43600000       5.70900000       0.53441332      -0.63006636      -0.02506867       0.55806533       0.28722928      -0.67017359
H       11.85200000      20.40900000      11.15000000       0.72429374       0.08223282      -0.00702451       0.75120938      -0.18700396       0.30092506
H       11.17800000      20.57700000      10.88000000       0.95536368       0.70491790       0.10577429      -0.75170715       0.18766424      -0.30115406
H        1.76700000      18.85000000      10.79600000       0.38870960      -0.04585863       0.69010998      -0.18763067       0.23543992      -0.79144372
H        1.93200000      18.64300000      11.49200000       0.00940107       0.04755423       0.26921309       0.18761622      -0.23535521       0.79140656
H       20.84800000      13.37400000      12.45900000      -0.51576788       0.34273208      -0.57308763      -0.08849353       0.72144392       0.41276446
H       20.92700000      12.73100000      12.09100000       0.15298433       0.04632869       0.12242973       0.08877556      -0.72130737      -0.41293833
H       15.30500000       5.69500000      13.86200000      -0.86365468       0.51214681       0.28404591       0.90750409      -0.77527841      -0.46265233
H       14.79500000       6.18100000      14.10300000       0.45054349      -0.06561274       0.47508421      -0.86446740       0.85332385       0.41965129
H       10.11900000      17.29100000      11.32000000      -0.08184971       0.04343359      -0.39677438       0.62525242       0.50064455       0.30809757
H        9.57600000      16.85800000      11.05000000      -0.79076641       0.02882231       0.14294844      -0.62374869      -0.49252038      -0.31613043
H        0.52700000      17.65700000      18.93800000      -0.20463020       0.19870530       1.08747644       0.52914638       0.29481843       0.57391719
H        0.05400000      17.39300000      18.42600000       0.38275127       0.49625816      -0.37261223      -0.52991374      -0.29594025      -0.57264856
H        5.87800000       9.37900000      12.06300000       0.15613458       0.19319117      -0.04530512       0.40144350      -0.18018175       0.73300485
H        5.53000000       9.53300000      11.42300000       0.44497539      -0.64227534       0.17207936      -0.40116918       0.17578462      -0.74547241
H        0.27100000      15.25700000      12.38500000       0.09832792      -0.27907266      -0.60978123      -0.21291459      -0.35013865       0.73190594
H        0.46000000      15.56800000      11.73500000      -0.13654428      -0.10453173      -0.40677154       0.21275247       0.35027071      -0.73200513
H       21.00100000       0.82200000      14.20500000       0.32949747      -0.18685834      -0.02089849       0.13035579      -0.04343485      -0.81878465
H       20.88400000       0.86100000      14.94000000       0.24395722      -0.62955142       0.12091404      -0.13032194       0.04345177       0.81876303
H       19.56900000      12.80800000      15.03100000      -0.55599820       0.40000060      -0.24939505      -0.10607471      -0.55229001       0.61671361
H       19.66500000      13.30300000      14.48200000      -0.70011700       0.14138081       0.69652065       0.10784742       0.55588842      -0.61287252
H       22.02200000      12.84300000       7.99700000       0.64009860       0.44144930      -0.29712551       0.09252105      -0.28098627      -0.79727115
H       21.94100000      13.08900000       8.69500000       0.41270432       0.04228074      -0.61888539      -0.09251960       0.28098548       0.79727070
H        1.92900000      13.79200000      11.28500000      -0.07508216       0.03413010       0.15270874      -0.18099831      -0.57223205       0.54185909
H        2.09600000      14.32000000      10.78500000       0.65288414      -0.62146450       0.12237199       0.18096543       0.57221543      -0.54191945
H       12.92300000      13.66500000      13.39200000      -0.15165913       0.33773774       0.06951235       0.35976938      -0.54389015       0.54768224
H       12.61600000      14.14500000      12.91200000      -0.33205164       0.12479076      -0.20592042      -0.34304983       0.55487248      -0.54911573
H       14.08800000       1.39600000      14.38200000       0.70685946       0.31738826      -0.31332975       0.58912321      -0.11218319       0.58672253
H       13.56500000       1.49600000      13.86100000      -0.24772839      -0.25745894       0.28748373      -0.58835878       0.11302841      -0.58641744
H       18.71000000      11.69900000      12.01600000      -0.38775436      -0.31081403       0.44279094      -0.09757336       0.81124599       0.26818534
H       18.79400000      10.99700000      11.78200000      -0.28615351      -0.24671835       0.12716799       0.09689814      -0.82371876      -0.27682069
H        3.30700000      14.54400000      14.31500000       0.31791766      -0.39395357       0.18416852      -0.04279913      -0.58653206       0.64088900
H        3.35300000      15.05000000      13.77000000       0.39347554      -0.07458311      -0.15148786       0.05722833       0.59138217      -0.63046409
H        0.71400000       6.55600000      15.67400000      -0.09273990      -0.99253732      -0.20558311       0.79250393      -0.18713694       0.20517196
H        0.01100000       6.72200000      15.49200000       0.01371815      -0.19718254       0.89602508      -0.79250329       0.18713373      -0.20517148
H        6.89200000       8.81000000      21.85600000      -0.47296662       0.34782569       0.48042159      -0.22547183      -0.49654910      -0.63878123
H        7.09300000       9.25100000      22.42200000       0.60840766       0.63635446      -0.06197420       0.22682828       0.49674379       0.63641417
H       12.94900000       0.12900000      12.20000000      -0.00499516       0.41101729       0.03814445       0.19723188       0.06528483       0.82129911
H       12.77600000       0.07200000      11.47800000      -0.60191662      -0.00483381      -0.28529829      -0.19697532      -0.06429504      -0.82272114
H       20.02800000       9.06000000      13.48700000       0.25072225       0.40374574       0.08514488      -0.28870206      -0.17600761      -0.78791883
H       20.27700000       9.20900000      14.17300000       0.17767919      -0.31332408      -0.27499679       0.28345088       0.16662687       0.78299183
H        8.32300000      10.60400000       8.24400000       1.23203639      -0.60137068       0.08583655       0.64581588      -0.72896855      -0.42943150
H        7.86700000      11.10900000       8.54700000      -0.26088354       0.41842230       0.51996932      -0.69406149       0.75617301       0.46015137
H        8.22600000       9.72500000      13.97000000       0.07320192      -0.70540841      -0.01048581       0.15954191      -0.90749425      -0.46302006
H        8.14700000      10.38200000      14.31400000      -0.07061713       0.41639035      -0.29183544      -0.05427658       0.90894240       0.50867287
H        0.36300000      22.07800000      15.78600000      -0.06879817       0.15484781      -0.41755310       0.00896214      -0.37192944      -0.74722029
H        0.35500000      22.41000000      16.45300000      -1.09017464      -0.05978702       0.01391380      -0.00896217       0.37192970       0.74722017
H       17.01700000      13.84800000      10.40800000       0.74241277       0.11178137       0.00055857      -0.13179413       0.39763067       0.70805680
H       17.13600000      13.48800000       9.76600000       0.25844575      -0.45549648      -0.02718261       0.13099411      -0.39734137      -0.70951943
H       12.80100000      11.31700000      11.99100000      -0.04276541       0.97890540      -0.16514746       0.43008379      -0.46308045      -0.59933665
H       12.42700000      11.70500000      12.50500000      -0.71331720       0.01105554       0.38378172      -0.44612548       0.43479596       0.59863825
H        6.68500000       6.05300000      10.96400000       0.16162513      -0.01884560      -0.12051116      -0.52626338      -0.52833027       0.38503043
H        7.15200000       6.52200000      10.62200000       0.12828583       0.25252483      -0.47551307       0.52678902       0.52907712      -0.38586294
O       12.04700000       0.83600000      17.09600000      -0.50407252       1.22731328      -1.35328144       2.24371656       0.07236941      -2.35473752
O       11.22100000       0.80800000      17.96000000       0.72650571      -0.84295520      -0.26717519      -2.24465230      -0.07793675       2.34450374
O        1.10400000      21.93600000       8.12400000       0.04560664      -2.01157454       0.15988877      10.58710333      -1.78275569      -6.78925081
O        0.10600000      22.10400000       8.76200000       1.89907142      -1.19304695      -3.48248736     -10.59597169       1.78414769       6.73176168
O        9.60700000      11.53200000      12.12700000       2.92145235      -2.00078216      -1.94108239      -1.33899611       0.21905023      -3.02158420
O       10.08800000      11.47800000      13.22100000      -1.25668796      -0.28399710       0.48987017       1.31908076      -0.05712068       3.06101512
O       14.70500000      19.91200000       0.00200000       1.28310465       1.31130683      -0.86906077      -2.20142762       3.71349639      -4.67657178
O       15.11900000      19.21400000       0.88100000      -0.78749966       0.61037945       1.79983326       2.20252967      -3.71248986       4.67535807
O       13.56500000      14.25200000      16.47900000      -1.10897760      -2.04804460      -0.51590580       2.41544230      -1.24750232      -1.77229083
O       12.67400000      14.71100000      17.13100000      -2.48998569       0.04107426      -0.67888546      -2.41905655       1.24359924       1.76635035
O       10.65600000      21.57300000      21.04500000      -0.08804228      -0.11495924      -1.22891622      -1.61306992      -4.52977822      -4.16806279
O       10.95800000      22.42500000      21.82900000      -1.44178555       3.08500678       0.15838678       1.59286671       4.53531435       4.17669263
O        9.60000000       8.75500000      11.78100000       1.54039069       3.06606913      -2.42265023       0.20204383      -2.15223198       2.47218085
O        9.52300000       9.53800000      10.88100000       0.79321784      -1.18352096       1.03698826      -0.21832180       2.14639037      -2.48269887
O       17.96300000      17.46300000       5.45600000       0.56648178       0.91480947      -0.78456913       1.91700728      -0.73077142      12.49770735
O       17.78200000      17.53200000       4.27600000       0.84860750      -3.35139186       0.56817473      -1.91701760       0.73079755     -12.49768113
O        8.92300000       4.74700000      21.86800000      -2.36838463       0.78563682       0.82087302       1.67143578       6.07503874      -1.14637436
O        8.61100000       3.61300000      22.08200000      -1.52147578       1.29370127      -0.29048843      -1.67168575      -6.07615871       1.14678093
O       22.10600000      14.21000000       1.17300000      -0.02226882      -0.24869649       1.18804346      -3.94973842      -3.86493006      11.39375872
O       22.47900000      14.57500000       0.09700000       2.41394734       2.09648603       1.76324258       3.94968583       3.86495071     -11.39381063
O       16.89200000       7.73200000       4.01500000       0.77484051      -0.81423586       2.15669261      12.56400224      -1.16528839       1.11237514
O       15.70600000       7.84200000       3.91000000      -1.48117959       0.78105295       2.37148762     -12.56398247       1.16530082      -1.11228385
O        5.35000000      14.16400000      21.80000000      -2.89193642       1.98111318       0.73445716     -12.21384023       2.36226288       2.38343065
O        6.50300000      13.94100000      21.57500000       2.11924483      -0.56467096       0.72022894      12.21383193      -2.36225743      -2.38345520
O       12.08500000      16.86600000      15.51400000       2.32936786      -0.52176157       0.60009943       2.57415684       1.22961516       1.60748019
O       11.14500000      16.41700000      14.92800000      -1.99721295       1.17941665       0.20338891      -2.58375024      -1.23874956      -1.61082872
O       19.23000000       3.66200000      10.83200000       0.53176349       1.20805090      -0.44763113      -7.86418056       9.64465058      -2.38466303
O       19.97200000       2.75200000      11.05700000       0.85107449       0.78535096       1.24877177       7.86414902      -9.64472032       2.38470557
O       22.02000000      12.70000000      21.06400000       1.24406075       1.89172470      -0.35084360      -4.07209500       3.33167309     -11.50790507
O       22.40500000      12.38500000      22.15200000       0.13341098      -1.50206480      -0.86374420       4.07203469      -3.33160882      11.50720918
O        5.94200000      14.64300000      13.88600000      -0.45230473      -2.89570665       2.19016754       0.27122981      -0.34384383      -3.27261182
O        5.84300000      14.76600000      15.07100000      -1.97680193      -1.02911378       0.52049807      -0.28151693       0.33235749       3.24394985
O        5.89200000      22.08800000       0.49500000       1.23361085       0.88091595       0.95170329       1.94444969      -0.27233236      -6.09090682
O        5.52900000      22.13900000       1.63300000       0.32351608       0.61636264      -0.87191051      -1.94211268       0.27332928       6.09081639
O       18.75100000       7.89100000      11.42700000      -0.52136032       4.21056863      -1.56531275       2.15848323      -2.36536184      -0.28990065
O       17.95100000       8.77400000      11.53600000       2.21081786      -1.57316758      -3.11690588      -2.14133356       2.39327579       0.29757611
O        7.81500000      16.99400000       1.37800000      -1.13487717      -0.72753298       1.61169294       0.96447784      -0.74190676     -12.61240032
O        7.72400000      17.06400000       2.56800000      -0.81490435      -0.33893204      -0.61372813      -0.96447809       0.74190973      12.61239823
O       15.66200000       0.27300000       8.85100000       0.54663327       0.03858676      -0.45332578      12.31739185       2.86750052      -0.51832052
O       14.49800000       0.00200000       8.90000000      -2.38353166       1.25363385      -0.84785480     -12.31769810      -2.86806683       0.51891480
O       10.28200000      11.50500000      16.19400000      -1.93898336       0.85781588      -2.85117279      -1.22989450       2.63885888       1.59490138
O       10.73500000      10.57000000      15.60200000      -1.98510553      -1.91793562      -0.65990191       1.25054123      -2.54328057      -1.64744348
O       16.05700000      13.02000000      14.11000000       0.96571495      -2.74593932       1.68613277       0.93495351      -0.79876473      -2.93068561
O       15.70500000      13.31900000      15.21400000       1.51081632      -2.05459847       0.57750076      -0.93314157       0.78870152       2.92854066
O       15.41700000       3.97900000      19.10400000      -0.62277296       1.27657050      -0.37327498      -5.58184162       4.13342842      10.57314440
O       15.94500000       3.58800000      18.10400000       3.75176985      -2.16396900       1.06460800       5.58275153      -4.13465061     -10.57136371
O       16.07700000       7.50200000      12.78600000       0.07073668      -1.39512058       1.80072868       0.16064312       2.34742873       2.30963562
O       16.01100000       6.64300000      11.95700000       2.02440087       1.08615493       2.39368770      -0.21508594      -2.40711306      -2.21426658
O        7.07100000      14.98700000      17.79000000       0.26230484       0.94320710      -1.59586064       5.60259868      -7.26196143       8.71033141
O        6.54100000      15.67400000      16.96600000      -0.56582430       0.82230014      -0.52997200      -5.60224297       7.26316651      -8.70978017
O       15.78000000       4.52300000      15.76500000       0.76846889       0.75323772       0.19631178       2.23600525      -0.85856709      -2.18344642
O       14.95100000       4.84400000      16.56500000       0.33306041      -0.98788848       0.96356754      -2.24260484       0.87136386       2.15133226
O       13.84200000       9.02900000      14.89900000       0.91475620      -0.67120075      -0.31361100       1.10471726      -2.55113747      -1.70413492
O       13.44500000       9.96900000      15.52300000      -0.04577442      -0.13894590      -0.78279504      -0.99094268       2.57509296       1.67084674
O        7.81900000      10.53600000      16.55400000      -1.11409836       1.57707031      -0.58168515      -2.00373377       2.59878064      -0.24594699
O        8.54200000       9.58600000      16.62900000       1.47887018       1.12835253      -0.48887196       1.94969400      -2.59018314       0.17565035
O       15.55900000      20.17200000       5.36100000       2.59957195       0.80153223      -0.82746951       7.40054788       2.28359698     -10.00131027
O       14.85900000      19.95600000       6.30700000       0.39312398       1.33561199       2.40676301      -7.40054709      -2.28360925      10.00135167
O       21.91200000      17.04100000      21.33700000      -1.66324840      -1.72860745      -0.21930687      -1.10640298       0.72411169      -2.94658194
O       22.32200000      16.77300000      22.42800000      -2.10333693      -2.41823894       0.66648194       1.10661901      -0.72294647       2.94431179
O       16.48400000       7.70900000      15.57100000       2.80558872       1.12413132      -0.78925999      -3.24706262       0.25201386      -0.09028041
O       17.67600000       7.61900000      15.60200000       1.17333932      -0.72600433       1.93777853       3.23773279      -0.23771433       0.08335005
O        5.54900000      12.99400000       7.81500000       3.03078934       0.23593940       1.67870762      -1.53485771      -2.72376355      -0.83884919
O        6.11500000      14.00100000       8.12500000       0.74869265       0.84304047       1.44805427       1.52962809       2.73750628       0.84424696
O        7.15200000       8.33400000      18.10200000      -2.48774311      -0.37793820      -2.54836367      -0.12876150       0.26769496      -3.20553522
O        7.19700000       8.23300000      19.29300000      -0.26649991      -0.14829006       0.76437243       0.11710889      -0.27380499       3.21355801
O        3.92600000       7.03800000       8.70800000       2.61667430       2.23564956       1.26568000       1.27877991       2.22449238      -1.97857136
O        3.45400000       6.21700000       9.43800000      -3.31082077      -2.08259369       1.01478697      -1.27981583      -2.22589434       1.97926552
O       22.14200000      10.07300000       0.20400000      -0.12494672      -1.61737388      -0.59777635       9.77266707       0.43319919      -8.05592551
O       21.22000000      10.03200000       0.96400000      -0.87203968       1.12570266       0.95891692      -9.77216879      -0.43641795       8.05487134
O       12.95100000      16.91700000      13.16600000       0.17061552      -0.03768134       1.21217570      -2.93175428      -0.28279974      -1.40417740
O       14.02800000      17.02100000      13.67600000      -2.76784921      -0.25461775       0.43326370       2.92608208       0.31806241       1.32416858
O       10.48500000      12.92800000       7.45100000      -0.68560980       0.08249463       0.75979054       2.57959321      -0.69899737       1.90455467
O        9.54500000      13.18200000       6.75800000       0.45832123       2.13426102       0.14860883      -2.57940523       0.69545917      -1.90012361
O        6.45900000       9.08200000       9.01800000      -1.70568785       5.39990456       1.90559694       2.76503715       0.70084361       1.63822745
O        5.45500000       8.83000000       8.42000000      -0.45714011       0.82233884      -1.25789370      -2.74652414      -0.68817750      -1.63811243
O       17.36100000      16.21000000       8.21400000       0.21162436      -0.62988525       3.84006339       1.01486344      -2.19427193      -2.12632659
O       16.98400000      17.02500000       9.00400000       0.14275070      -0.95153490       0.61698451      -1.01507830       2.19433865       2.12740984
O        5.59800000       4.93400000       0.03300000      -0.07289110      -0.60861255      -0.62228331      -1.11281392      -1.48822820      -2.61435875
O        6.01300000       5.48900000       1.00800000       0.22121150      -0.90051175       0.69995810       1.11277619       1.48814889       2.61437988
O       12.61800000       5.42100000       4.71800000      -1.65042950       1.44668489      -2.42757127      -0.92222417       2.18246869      -2.14439387
O       12.96300000       4.60400000       5.52100000      -0.43340702      -0.96049814      -2.09834889       0.92104357      -2.18213647       2.14479960
O       10.98700000       5.15800000       9.95300000      -0.27601539      -0.74845187       2.53739716      -0.86805409      -1.93056651       2.56458206
O       11.29700000       5.85100000       9.03000000       1.91391831       1.94761879       2.55388611       0.85222136       1.92292746      -2.57969317
O        6.54300000      12.53000000       9.72300000       1.64368838       0.36308199      -1.53621003      -2.74404622      -0.76380154      -1.63741005
O        7.54100000      12.80400000      10.32200000       0.23612591      -1.00524447       0.49923194       2.77563554       0.77196149       1.66923321
O        7.61700000      11.90100000       6.02100000      -1.68775452      -1.08718837       0.19002185       2.62750139      -1.33855308       1.17183699
O        6.62500000      12.40500000       5.58000000      -0.92583169       1.24764028       5.24418358      -2.62130585       1.33062859      -1.16695143
O        8.43500000       0.61000000       8.68400000       2.30690493       1.95974858       1.89556546      -0.33833319       0.08457782      12.64529462
O        8.46700000       0.60200000       7.48800000       1.51318619       1.21782752       1.97104652       0.33833874      -0.08458634     -12.64531729
O       21.99200000      14.65900000      15.80400000       0.21107593       0.08005393       0.79392780      -0.01402663       2.80909252      -1.66896179
O       21.99700000      13.63100000      16.41400000       1.29368035       0.59101006      -0.98370100       0.01252244      -2.81046934       1.66509464
O       10.83700000      16.03300000       9.06500000      -1.70645111      -1.09106769       1.07665075      -3.21742130       0.38748910       0.37568123
O       12.01700000      15.89000000       8.93400000       0.22556093      -0.58855014      -4.57340013       3.21135116      -0.38902152      -0.34513261
O       12.81200000      21.82300000       1.41100000       2.17125171       0.61120214       2.68974499      -0.97999828      -0.51097396      -6.27523510
O       12.99600000      21.91900000       2.58900000       1.43724858       2.55560411      -1.23307294       0.98007210       0.51160660       6.27531730
O        9.04000000       0.02600000      13.72600000       0.98862581       2.32999175       0.30821888       0.49510099      -3.08121773       1.03878511
O        8.87400000       1.15000000      13.35200000       0.61689368      -1.67852799      -2.28219370      -0.43589428       3.06646628      -1.01585355
O       11.92200000       7.68100000      14.91700000       1.87179241       0.58794324      -1.65255785      -1.59456775       1.69038503      -2.29467969
O       12.50600000       7.06000000      15.75500000       0.46499318       0.88024742      -0.31041753       1.60204352      -1.70624393       2.28778656
200
Lattice="22.43773069742029 0.0 0.0 0.0 22.43773069742029 0.0 0.0 0.0 22.43773069742029" Properties=species:S:1:pos:R:3:momenta:R:3:forces:R:3 connectivity="_JSON [[0, 1, null], [2, 3, null], [4, 5, null], [6, 7, null], [8, 9, null], [10, 11, null], [12, 13, null], [14, 15, null], [16, 17, null], [18, 19, null], [20, 21, null], [22, 23, null], [24, 25, null], [26, 27, null], [28, 29, null], [30, 31, null], [32, 33, null], [34, 35, null], [36, 37, null], [38, 39, null], [40, 41, null], [42, 43, null], [44, 45, null], [46, 47, null], [48, 49, null], [50, 51, null], [52, 53, null], [54, 55, null], [56, 57, null], [58, 59, null], [60, 61, null], [62, 63, null], [64, 65, null], [66, 67, null], [68, 69, null], [70, 71, null], [72, 73, null], [74, 75, null], [76, 77, null], [78, 79, null], [80, 81, null], [82, 83, null], [84, 85, null], [86, 87, null], [88, 89, null], [90, 91, null], [92, 93, null], [94, 95, null], [96, 97, null], [98, 99, null], [100, 101, null], [102, 103, null], [104, 105, null], [106, 107, null], [108, 109, null], [110, 111, null], [112, 113, null], [114, 115, null], [116, 117, null], [118, 119, null], [120, 121, null], [122, 123, null], [124, 125, null], [126, 127, null], [128, 129, null], [130, 131, null], [132, 133, null], [134, 135, null], [136, 137, null], [138, 139, null], [140, 141, null], [142, 143, null], [144, 145, null], [146, 147, null], [148, 149, null], [150, 151, null], [152, 153, null], [154, 155, null], [156, 157, null], [158, 159, null], [160, 161, null], [162, 163, null], [164, 165, null], [166, 167, null], [168, 169, null], [170, 171, null], [172, 173, null], [174, 175, null], [176, 177, null], [178, 179, null], [180, 181, null], [182, 183, null], [184, 185, null], [186, 187, null], [188, 189, null], [190, 191, null], [192, 193, null], [194, 195, null], [196, 197, null], [198, 199, null]]" energy=-85.78005085153407 pbc="T T T"
H        0.07900000       6.07600000      13.30200000       0.30217266       0.21339894       0.00692321      -0.15852009      -0.11063149       0.82677783
H        0.21800000       6.17300000      12.57700000       0.11886438       0.24228585       0.48490709       0.15850727       0.11060274      -0.82681171
H       16.33700000       8.45300000      21.65100000       0.23224917       0.68814323       0.35553828      -0.47701056       0.57057729       0.41082421
H       16.75500000       7.95300000      21.29100000      -0.29228937      -0.75292166      -0.29266034       0.47699897      -0.57057913      -0.41081366
H        5.32100000      14.97900000      10.48500000       0.25053403       0.00358650      -0.13029545      -0.36858306       0.64979970      -0.51940679
H        5.62600000      14.43800000      10.89700000      -0.31096760      -0.14154155      -0.62842362       0.37944232      -0.67862317       0.48598477
H       17.25100000      22.39200000      13.61000000       0.04276459      -0.10122982      -0.69032286       0.46099620       0.03692643      -0.69371679
H       16.83900000      22.35900000      14.23000000       0.30786715       0.31449592       0.43674443      -0.46098130      -0.03692233       0.69372239
H        5.57100000      11.44200000      13.12000000       0.52523308      -0.02764789      -0.01066264       0.34924457      -0.70936872      -0.26748226
H        5.25900000      12.07600000      13.35700000       0.36201419       0.08316115      -0.13114163      -0.34961928       0.71217997       0.26474951
H        9.84200000       5.64800000       6.86200000      -0.44279662      -1.14181921      -0.47162025       0.37653653       0.14222249      -0.79112317
H        9.53300000       5.52900000       7.52900000      -0.18843456       0.36595471       0.34217591      -0.36182085      -0.14240512       0.81083951
H        3.15500000      11.32900000      13.00600000       0.43014242      -0.17364904       0.03861592       0.04420802      -0.82159566       0.19763064
H        3.11600000      12.05200000      12.83200000       0.36638209       0.29351377       0.62211584      -0.04438918       0.82140306      -0.19778463
H        7.49100000       3.80600000      14.65700000       0.13252586       0.29111484      -0.01095441      -0.21580301       0.03624764       0.80463685
H        7.68400000       3.77300000      13.93800000       0.42141021       0.11888025       0.15739830       0.21603441      -0.03810926      -0.80434538
H        5.56900000      10.86400000      16.12600000      -0.34844543       0.35595652      -0.40022137       0.50526317      -0.65943439       0.24387231
H        5.13700000      11.43700000      15.92400000       0.05436635       0.48096533      -0.14210557      -0.49121457       0.65595181      -0.22339035
H       10.65900000      13.08200000      14.67700000       0.25020844      -0.15206443       0.00673969      -0.91450714      -0.19949303      -0.60215667
H       11.26700000      13.16100000      15.10100000       0.58680087       0.23798357      -0.11448022       0.88272068       0.06572394       0.66373493
H        8.71000000       0.08400000       0.44700000      -0.11166989       0.55602174      -0.20669292      -0.04833614      -0.89842436      -0.09069731
H        8.76500000       0.82400000       0.51400000       0.60338832       0.40218717       0.28530480       0.06919117       0.89254701       0.07659949
H       20.53800000       3.42700000       3.10800000       0.37317452       0.20461898       0.57134687       0.08833597       0.72326250       0.38316245
H       20.45800000       2.77200000       2.76100000      -0.24337709       0.69057910       0.63072489      -0.08833625      -0.72326239      -0.38316308
H       10.09800000       4.94600000      12.38500000       0.40511462      -0.22062491      -0.14713501       0.67793036       0.51960455       0.08757448
H        9.51000000       4.49600000      12.30600000       0.28579217       0.34571919      -0.48953558      -0.67600392      -0.51835110      -0.09298338
H       13.94800000      18.29800000      11.71600000      -0.02042666      -0.12290372       0.42579806       0.73891202      -0.14934426       0.63936539
H       13.36500000      18.38000000      11.25900000      -0.11001818       0.60842670       0.56859608      -0.73220417       0.10201688      -0.58193091
H       14.35300000      22.35000000      20.72500000       0.61030316       0.05789242      -0.82166505       0.07029958      -0.10038587      -0.85270310
H       14.29100000      22.43600000      21.46200000      -0.22917225       0.46501229       0.47927305      -0.07382152       0.09824092       0.85633862
H       22.04400000       7.24200000       0.60800000      -0.30894316       0.38966657       0.11398871      -0.42967352       0.20834645       0.68198967
H       22.42900000       7.05700000      -0.00300000      -0.22212462      -0.38174201       0.09009500       0.42928964      -0.20528386      -0.68087944
H       10.90400000      22.21700000      15.02900000       0.15825700      -0.26238416       0.28826684      -0.32970222      -0.28060749       0.90560201
H       11.13100000      22.43300000      14.35300000       0.20300830      -0.01654060       0.56576390       0.27228425       0.29848496      -0.91300736
H       17.86500000       5.66600000      22.47500000      -0.37416737       0.41030746       0.10831747       0.47246960      -0.69184109       0.02137637
H       17.44500000       6.28100000      22.45600000      -0.64671034       0.18962019      -0.10485371      -0.47249570       0.69185089      -0.02137087
H        8.74100000      13.65600000      12.89400000      -0.19181050       0.06862267       0.05528072       0.40442205      -0.68337567       0.47861611
H        8.40300000      14.19000000      12.49900000      -0.74996983      -0.23818969       0.98581528      -0.42355367       0.63273585      -0.47047247
H       15.68100000      10.23600000      14.95000000       0.71635165      -0.05615047       0.02082205      -0.70134079      -0.07151464      -0.86067388
H       16.10100000      10.26400000      15.56400000       0.65882293      -0.19337536      -0.19293466       0.60631615       0.02566630       0.88751209
H       10.30100000      14.12000000      10.70600000       0.48378526       0.08351653      -0.09944361       0.62122495       0.62867109      -0.26123457
H        9.80000000      13.60400000      10.90100000       0.16717424      -0.05600846      -0.21675696      -0.62394358      -0.66665896       0.22274462
H       11.72800000       8.50700000       5.29800000       0.66161998      -0.24426738      -0.23701798       0.65387929       0.52589262       0.05600792
H       11.14900000       8.04100000       5.24800000       0.01711163      -0.48758224       0.41862603      -0.65290493      -0.52590481      -0.05702928
H       22.26900000       0.03000000       2.82800000      -0.40561450      -0.32013911      -0.32885658      -0.07356684      -0.05517294      -0.85047301
H       22.33300000       0.07800000       3.56800000      -0.37714660      -0.72558968      -0.49803095       0.07352204       0.05515659       0.85020939
H        0.00400000      22.20300000       6.25600000      -0.03786459       0.33790881       0.12571390      -0.55030917      -0.29198065       0.72737353
H        0.45300000      22.43600000       5.70900000      -0.11528424       0.44460049       0.41709295       0.55806533       0.28722928      -0.67017359
H       11.85200000      20.40900000      11.15000000       0.31574709       0.11392250      -0.27308622       0.75120938      -0.18700396       0.30092506
H       11.17800000      20.57700000      10.88000000       0.75641246      -0.84824295       0.78694976      -0.75170715       0.18766424      -0.30115406
H        1.76700000      18.85000000      10.79600000       0.26061320      -0.30859495      -0.22382196      -0.18763067       0.23543992      -0.79144372
H        1.93200000      18.64300000      11.49200000      -0.02801790       0.38940810      -0.46193137       0.18761622      -0.23535521       0.79140656
H       20.84800000      13.37400000      12.45900000       0.06026302      -0.05497949       0.08991276      -0.08849353       0.72144392       0.41276446
H       20.92700000      12.73100000      12.09100000       0.01103130      -0.19110721      -0.46636187       0.08877556      -0.72130737      -0.41293833
H       15.30500000       5.69500000      13.86200000       0.32409397      -0.04076511       0.11304845       0.90750409      -0.77527841      -0.46265233
H       14.79500000       6.18100000      14.10300000      -0.25455614      -0.27003978      -0.53536411      -0.86446740       0.85332385       0.41965129
H       10.11900000      17.29100000      11.32000000       0.22855824       0.52653106      -0.03925761       0.62525242       0.50064455       0.30809757
H        9.57600000      16.85800000      11.05000000      -0.38128337      -0.25449089      -0.77108273      -0.62374869      -0.49252038      -0.31613043
H        0.52700000      17.65700000      18.93800000       0.17852395      -0.01837318      -0.12031655       0.52914638       0.29481843       0.57391719
H        0.05400000      17.39300000      18.42600000       0.44305298      -0.42278790      -0.46531850      -0.52991374      -0.29594025      -0.57264856
H        5.87800000       9.37900000      12.06300000       0.28679910      -0.20884051      -0.10337051       0.40144350      -0.18018175       0.73300485
H        5.53000000       9.53300000      11.42300000       0.62193768      -0.80360988       0.42345193      -0.40116918       0.17578462      -0.74547241
H        0.27100000      15.25700000      12.38500000      -0.20586304      -1.05418451      -0.09310302      -0.21291459      -0.35013865       0.73190594
H        0.46000000      15.56800000      11.73500000      -0.08807820       0.82264582       0.04703499       0.21275247       0.35027071      -0.73200513
H       21.00100000       0.82200000      14.20500000       0.85636776      -0.48411247      -0.35271213       0.13035579      -0.04343485      -0.81878465
H       20.88400000       0.86100000      14.94000000      -0.22049668      -0.49058737       0.05375358      -0.13032194       0.04345177       0.81876303
H       19.56900000      12.80800000      15.03100000      -0.36462527       0.14134748       0.24233440      -0.10607471      -0.55229001       0.61671361
H       19.66500000      13.30300000      14.48200000      -0.79364147       0.17929410      -0.00270703       0.10784742       0.55588842      -0.61287252
H       22.02200000      12.84300000       7.99700000       0.30309724      -0.24903482       0.30827969       0.09252105      -0.28098627      -0.79727115
H       21.94100000      13.08900000       8.69500000       0.33769559       0.01578095      -0.08816070      -0.09251960       0.28098548       0.79727070
H        1.92900000      13.79200000      11.28500000      -0.44979288      -0.05406537      -0.89696028      -0.18099831      -0.57223205       0.54185909
H        2.09600000      14.32000000      10.78500000       0.18477091       0.14631058       0.10497698       0.18096543       0.57221543      -0.54191945
H       12.92300000      13.66500000      13.39200000      -0.08585332      -0.44835794      -0.09290574       0.35976938      -0.54389015       0.54768224
H       12.61600000      14.14500000      12.91200000       0.43408454       0.07875879       0.03394980      -0.34304983       0.55487248      -0.54911573
H       14.08800000       1.39600000      14.38200000       0.06178719       0.38234828      -0.16686172       0.58912321      -0.11218319       0.58672253
H       13.56500000       1.49600000      13.86100000       0.69018742       0.01388164       1.08255433      -0.58835878       0.11302841      -0.58641744
H       18.71000000      11.69900000      12.01600000      -0.50319383       0.43229919       0.11990075      -0.09757336       0.81124599       0.26818534
H       18.79400000      10.99700000      11.78200000       0.37684776      -0.73936573      -0.28653654       0.09689814      -0.82371876      -0.27682069
H        3.30700000      14.54400000      14.31500000       0.56610174       0.47392325       0.14274995      -0.04279913      -0.58653206       0.64088900
H        3.35300000      15.05000000      13.77000000      -0.15123110       0.12974927       0.19387656       0.05722833       0.59138217      -0.63046409
H        0.71400000       6.55600000      15.67400000      -0.37983522       0.60116434       0.32192668       0.79250393      -0.18713694       0.20517196
H        0.01100000       6.72200000      15.49200000       0.04390877       0.69541796       0.38643724      -0.79250329       0.18713373      -0.20517148
H        6.89200000       8.81000000      21.85600000       0.91221995      -0.27871234      -0.23137227      -0.22547183      -0.49654910      -0.63878123
H        7.09300000       9.25100000      22.42200000       0.22647186       0.42448689      -0.22362958       0.22682828       0.49674379       0.63641417
H       12.94900000       0.12900000      12.20000000       0.07294911      -0.81167316       0.88929004       0.19723188       0.06528483       0.82129911
H       12.77600000       0.07200000      11.47800000       0.24522947      -0.47402219       0.26829308      -0.19697532      -0.06429504      -0.82272114
H       20.02800000       9.06000000      13.48700000      -0.49278498      -0.01580305       0.12072899      -0.28870206      -0.17600761      -0.78791883
H       20.27700000       9.20900000      14.17300000       0.29394695       0.51519167       0.45462687       0.28345088       0.16662687       0.78299183
H        8.32300000      10.60400000       8.24400000      -0.36678002       0.33548638       0.43238434       0.64581588      -0.72896855      -0.42943150
H        7.86700000      11.10900000       8.54700000       0.01750656       1.00617264       0.05293239      -0.69406149       0.75617301       0.46015137
H        8.22600000       9.72500000      13.97000000       0.21073270      -0.13982828      -0.59063841       0.15954191      -0.90749425      -0.46302006
H        8.14700000      10.38200000      14.31400000      -0.23931770       0.72114387      -0.07036553      -0.05427658       0.90894240       0.50867287
H        0.36300000      22.07800000      15.78600000       0.26297318       0.68216668       0.48717134       0.00896214      -0.37192944      -0.74722029
H        0.35500000      22.41000000      16.45300000       0.23465727       0.16568134      -0.75657487      -0.00896217       0.37192970       0.74722017
H       17.01700000      13.84800000      10.40800000      -1.00723429      -0.15261398      -0.79002500      -0.13179413       0.39763067       0.70805680
H       17.13600000      13.48800000       9.76600000       0.22252952      -0.01580465      -0.15897493       0.13099411      -0.39734137      -0.70951943
H       12.80100000      11.31700000      11.99100000      -0.11766353       0.32753556      -0.04384132       0.43008379      -0.46308045      -0.59933665
H       12.42700000      11.70500000      12.50500000      -0.08029907       0.10032518      -0.07866472      -0.44612548       0.43479596       0.59863825
H        6.68500000       6.05300000      10.96400000      -0.13711238       0.12499788       0.42227786      -0.52626338      -0.52833027       0.38503043
H        7.15200000       6.52200000      10.62200000       0.30322848       0.02352549       0.03615712       0.52678902       0.52907712      -0.38586294
O       12.04700000       0.83600000      17.09600000      -1.30393013       1.48260809      -0.14448537       2.24371656       0.07236941      -2.35473752
O       11.22100000       0.80800000      17.96000000       1.64970438       0.45754998       1.54530728      -2.24465230      -0.07793675       2.34450374
O        1.10400000      21.93600000       8.12400000       0.95216761      -0.16950474       0.19537208      10.58710333      -1.78275569      -6.78925081
O        0.10600000      22.10400000       8.76200000       0.45636987       1.03470706       3.03378876     -10.59597169       1.78414769       6.73176168
O        9.60700000      11.53200000      12.12700000       1.36569827       0.19276598      -3.36381348      -1.33899611       0.21905023      -3.02158420
O       10.08800000      11.47800000      13.22100000      -0.25102619      -1.84477706       2.34882022       1.31908076      -0.05712068       3.06101512
O       14.70500000      19.91200000       0.00200000       1.82920035      -0.48151153       0.30864535      -2.20142762       3.71349639      -4.67657178
O       15.11900000      19.21400000       0.88100000       2.52085314      -1.69592340      -2.55882553       2.20252967      -3.71248986       4.67535807
O       13.56500000      14.25200000      16.47900000      -4.51232704      -0.90725100       0.67818785       2.41544230      -1.24750232      -1.77229083
O       12.67400000      14.71100000      17.13100000       1.22933828       0.71811751       0.01411804      -2.41905655       1.24359924       1.76635035
O       10.65600000      21.57300000      21.04500000      -1.10350242      -0.57020639       3.36025349      -1.61306992      -4.52977822      -4.16806279
O       10.95800000      22.42500000      21.82900000       1.12202076      -2.68008669       1.19483588       1.59286671       4.53531435       4.17669263
O        9.60000000       8.75500000      11.78100000       1.39495217       1.37742654      -1.22157254       0.20204383      -2.15223198       2.47218085
O        9.52300000       9.53800000      10.88100000      -0.26847127      -0.10091153      -2.09198901      -0.21832180       2.14639037      -2.48269887
O       17.96300000      17.46300000       5.45600000      -1.57674623      -0.96901357      -0.14961785       1.91700728      -0.73077142      12.49770735
O       17.78200000      17.53200000       4.27600000       0.07550169       3.75597415      -0.02365720      -1.91701760       0.73079755     -12.49768113
O        8.92300000       4.74700000      21.86800000      -1.29228535       0.23211440       0.00152968       1.67143578       6.07503874      -1.14637436
O        8.61100000       3.61300000      22.08200000      -1.62589416       0.92073602       0.11257037      -1.67168575      -6.07615871       1.14678093
O       22.10600000      14.21000000       1.17300000      -1.25774776       0.81808684      -1.30948878      -3.94973842      -3.86493006      11.39375872
O       22.47900000      14.57500000       0.09700000      -0.63423457       2.22378558      -1.36018432       3.94968583       3.86495071     -11.39381063
O       16.89200000       7.73200000       4.01500000      -1.11227056       0.29592113       0.85812163      12.56400224      -1.16528839       1.11237514
O       15.70600000       7.84200000       3.91000000       0.60427113       4.50325335       0.94939964     -12.56398247       1.16530082      -1.11228385
O        5.35000000      14.16400000      21.80000000       1.34501366       1.85231289      -0.16047957     -12.21384023       2.36226288       2.38343065
O        6.50300000      13.94100000      21.57500000       1.45605456       0.31386269      -1.73151513      12.21383193      -2.36225743      -2.38345520
O       12.08500000      16.86600000      15.51400000       1.54768450      -3.46017669      -2.16203099       2.57415684       1.22961516       1.60748019
O       11.14500000      16.41700000      14.92800000       0.82418562       1.78479220       0.89028698      -2.58375024      -1.23874956      -1.61082872
O       19.23000000       3.66200000      10.83200000       0.30042996       0.05989192      -0.29172339      -7.86418056       9.64465058      -2.38466303
O       19.97200000       2.75200000      11.05700000      -2.93503235       0.29961023       1.55441965       7.86414902      -9.64472032       2.38470557
O       22.02000000      12.70000000      21.06400000      -2.68530545      -1.54655631       3.68679244      -4.07209500       3.33167309     -11.50790507
O       22.40500000      12.38500000      22.15200000      -0.44943670       2.43580981       0.10584780       4.07203469      -3.33160882      11.50720918
O        5.94200000      14.64300000      13.88600000      -0.81880538       3.36429206       2.11157140       0.27122981      -0.34384383      -3.27261182
O        5.84300000      14.76600000      15.07100000      -2.73950131       0.66346885      -0.15673639      -0.28151693       0.33235749       3.24394985
O        5.89200000      22.08800000       0.49500000      -2.40301109       0.44485822       0.56329388       1.94444969      -0.27233236      -6.09090682
O        5.52900000      22.13900000       1.63300000      -1.28007537      -0.88137275       2.55444068      -1.94211268       0.27332928       6.09081639
O       18.75100000       7.89100000      11.42700000      -2.09067689       2.81876078       0.46999340       2.15848323      -2.36536184      -0.28990065
O       17.95100000       8.77400000      11.53600000       0.01673872       2.74451962      -0.97975337      -2.14133356       2.39327579       0.29757611
O        7.81500000      16.99400000       1.37800000      -0.26513835       0.10407390      -1.58678089       0.96447784      -0.74190676     -12.61240032
O        7.72400000      17.06400000       2.56800000       2.73195801       0.77562064      -3.24868991      -0.96447809       0.74190973      12.61239823
O       15.66200000       0.27300000       8.85100000      -0.73025000       1.43002351      -0.60898654      12.31739185       2.86750052      -0.51832052
O       14.49800000       0.00200000       8.90000000      -0.87729957      -0.78307803      -0.13213194     -12.31769810      -2.86806683       0.51891480
O       10.28200000      11.50500000      16.19400000      -2.09214401      -0.81896741      -3.58200060      -1.22989450       2.63885888       1.59490138
O       10.73500000      10.57000000      15.60200000      -0.74450359       0.86973109       0.81895704       1.25054123      -2.54328057      -1.64744348
O       16.05700000      13.02000000      14.11000000       4.04618038       1.98021750       0.34626164       0.93495351      -0.79876473      -2.93068561
O       15.70500000      13.31900000      15.21400000       4.26717785       1.35018272      -2.30385036      -0.93314157       0.78870152       2.92854066
O       15.41700000       3.97900000      19.10400000      -2.21680998      -0.07222011      -2.79468310      -5.58184162       4.13342842      10.57314440
O       15.94500000       3.58800000      18.10400000      -0.14214179       0.71453447       1.70068217       5.58275153      -4.13465061     -10.57136371
O       16.07700000       7.50200000      12.78600000      -2.78644593       1.71463804      -0.55118817       0.16064312       2.34742873       2.30963562
O       16.01100000       6.64300000      11.95700000      -0.15939023      -1.08784463      -0.22380437      -0.21508594      -2.40711306      -2.21426658
O        7.07100000      14.98700000      17.79000000       1.37479489      -1.47942434      -1.31946715       5.60259868      -7.26196143       8.71033141
O        6.54100000      15.67400000      16.96600000      -2.26062298      -0.20752774       0.09329423      -5.60224297       7.26316651      -8.70978017
O       15.78000000       4.52300000      15.76500000       1.34526522       2.74224260      -0.41978091       2.23600525      -0.85856709      -2.18344642
O       14.95100000       4.84400000      16.56500000       2.76524804       1.37197821       0.42380207      -2.24260484       0.87136386       2.15133226
O       13.84200000       9.02900000      14.89900000       0.65957706       0.43072346       1.11069830       1.10471726      -2.55113747      -1.70413492
O       13.44500000       9.96900000      15.52300000       0.01623055      -1.55027593       1.31123461      -0.99094268       2.57509296       1.67084674
O        7.81900000      10.53600000      16.55400000       4.06590688       3.19859091       1.67966464      -2.00373377       2.59878064      -0.24594699
O        8.54200000       9.58600000      16.62900000      -1.35517289       0.45065658      -0.20408513       1.94969400      -2.59018314       0.17565035
O       15.55900000      20.17200000       5.36100000      -0.69946962      -0.22989225       2.06155069       7.40054788       2.28359698     -10.00131027
O       14.85900000      19.95600000       6.30700000      -1.70720819       1.67914585      -3.49922197      -7.40054709      -2.28360925      10.00135167
O       21.91200000      17.04100000      21.33700000      -0.47734752       1.61902399       1.41888688      -1.10640298       0.72411169      -2.94658194
O       22.32200000      16.77300000      22.42800000       0.32407303       0.52363876      -0.83994557       1.10661901      -0.72294647       2.94431179
O       16.48400000       7.70900000      15.57100000       4.66672426       4.45347494      -1.97187469      -3.24706262       0.25201386      -0.09028041
O       17.67600000       7.61900000      15.60200000      -2.03978299       1.83951615       0.78853680       3.23773279      -0.23771433       0.08335005
O        5.54900000      12.99400000       7.81500000      -1.03960543      -1.06521335       2.43707850      -1.53485771      -2.72376355      -0.83884919
O        6.11500000      14.00100000       8.12500000      -1.14091359       1.61208485       2.08845992       1.52962809       2.73750628       0.84424696
O        7.15200000       8.33400000      18.10200000       0.44084826      -0.31111424      -2.03003109      -0.12876150       0.26769496      -3.20553522
O        7.19700000       8.23300000      19.29300000      -1.32366345       0.13568868       1.53726775       0.11710889      -0.27380499       3.21355801
O        3.92600000       7.03800000       8.70800000       0.03419005       0.95755465       1.20012015       1.27877991       2.22449238      -1.97857136
O        3.45400000       6.21700000       9.43800000      -0.89668824       1.27273471      -3.56284072      -1.27981583      -2.22589434       1.97926552
O       22.14200000      10.07300000       0.20400000       1.94400725      -0.35815608      -1.17934889       9.77266707       0.43319919      -8.05592551
O       21.22000000      10.03200000       0.96400000       0.24085158       0.05956849      -0.20559856      -9.77216879      -0.43641795       8.05487134
O       12.95100000      16.91700000      13.16600000       0.25905025      -2.46374266       0.84793497      -2.93175428      -0.28279974      -1.40417740
O       14.02800000      17.02100000      13.67600000       1.14131633      -0.90940196       1.45325808       2.92608208       0.31806241       1.32416858
O       10.48500000      12.92800000       7.45100000      -3.15644961      -0.18477901       0.38504976       2.57959321      -0.69899737       1.90455467
O        9.54500000      13.18200000       6.75800000       2.19620485       4.07168150      -0.76109949      -2.57940523       0.69545917      -1.90012361
O        6.45900000       9.08200000       9.01800000      -3.53962938      -0.19054449       1.30985608       2.76503715       0.70084361       1.63822745
O        5.45500000       8.83000000       8.42000000       1.82666474       1.44176471      -0.09657470      -2.74652414      -0.68817750      -1.63811243
O       17.36100000      16.21000000       8.21400000      -0.24686487      -1.33959206       1.30514286       1.01486344      -2.19427193      -2.12632659
O       16.98400000      17.02500000       9.00400000      -3.17058791       2.28381557      -1.92010725      -1.01507830       2.19433865       2.12740984
O        5.59800000       4.93400000       0.03300000      -0.61625695      -0.35229980       0.50264797      -1.11281392      -1.48822820      -2.61435875
O        6.01300000       5.48900000       1.00800000       3.34956547      -1.18140048       3.57938271       1.11277619       1.48814889       2.61437988
O       12.61800000       5.42100000       4.71800000      -1.20503497      -2.67462212       0.66315714      -0.92222417       2.18246869      -2.14439387
O       12.96300000       4.60400000       5.52100000       1.73173863      -0.76061368      -0.60487403       0.92104357      -2.18213647       2.14479960
O       10.98700000       5.15800000       9.95300000      -0.87706514       0.52755403      -0.74873527      -0.86805409      -1.93056651       2.56458206
O       11.29700000       5.85100000       9.03000000       0.62325979      -1.68755000      -2.27175539       0.85222136       1.92292746      -2.57969317
O        6.54300000      12.53000000       9.72300000       2.43301092      -0.11870332      -1.36873940      -2.74404622      -0.76380154      -1.63741005
O        7.54100000      12.80400000      10.32200000      -0.92885736      -4.39611797      -1.09170619       2.77563554       0.77196149       1.66923321
O        7.61700000      11.90100000       6.02100000       0.53828094       3.82008657       1.00531279       2.62750139      -1.33855308       1.17183699
O        6.62500000      12.40500000       5.58000000       3.27550700      -1.26953610      -1.79765409      -2.62130585       1.33062859      -1.16695143
O        8.43500000       0.61000000       8.68400000       1.79963619       0.09100717      -2.93246416      -0.33833319       0.08457782      12.64529462
O        8.46700000       0.60200000       7.48800000       0.60675742      -0.41813569       0.80558944       0.33833874      -0.08458634     -12.64531729
O       21.99200000      14.65900000      15.80400000       1.82470898      -0.44174461      -0.60753571      -0.01402663       2.80909252      -1.66896179
O       21.99700000      13.63100000      16.41400000      -2.02611049      -0.65320723      -1.48775893       0.01252244      -2.81046934       1.66509464
O       10.83700000      16.03300000       9.06500000      -1.49170976       0.74211034      -1.02208616      -3.21742130       0.38748910       0.37568123
O       12.01700000      15.89000000       8.93400000      -0.63536981      -1.82357254       0.43364124       3.21135116      -0.38902152      -0.34513261
O       12.81200000      21.82300000       1.41100000      -2.39226140      -1.66132674       1.38841348      -0.97999828      -0.51097396      -6.27523510
O       12.99600000      21.91900000       2.58900000      -0.28888260      -0.68764373      -0.11913388       0.98007210       0.51160660       6.27531730
O        9.04000000       0.02600000      13.72600000       2.75852753       0.72355971       0.03428424       0.49510099      -3.08121773       1.03878511
O        8.87400000       1.15000000      13.35200000       0.89601897      -1.69843096       0.25431258      -0.43589428       3.06646628      -1.01585355
O       11.92200000       7.68100000      14.91700000      -0.62755857       0.56061316       0.40194382      -1.59456775       1.69038503      -2.29467969
O       12.50600000       7.06000000      15.75500000       0.32690753       1.64545544      -0.94980946       1.60204352      -1.70624393       2.28778656
200
Lattice="22.43773069742029 0.0 0.0 0.0 22.43773069742029 0.0 0.0 0.0 22.43773069742029" Properties=species:S:1:pos:R:3:momenta:R:3:forces:R:3 connectivity="_JSON [[0, 1, null], [2, 3, null], [4, 5, null], [6, 7, null], [8, 9, null], [10, 11, null], [12, 13, null], [14, 15, null], [16, 17, null], [18, 19, null], [20, 21, null], [22, 23, null], [24, 25, null], [26, 27, null], [28, 29, null], [30, 31, null], [32, 33, null], [34, 35, null], [36, 37, null], [38, 39, null], [40, 41, null], [42, 43, null], [44, 45, null], [46, 47, null], [48, 49, null], [50, 51, null], [52, 53, null], [54, 55, null], [56, 57, null], [58, 59, null], [60, 61, null], [62, 63, null], [64, 65, null], [66, 67, null], [68, 69, null], [70, 71, null], [72, 73, null], [74, 75, null], [76, 77, null], [78, 79, null], [80, 81, null], [82, 83, null], [84, 85, null], [86, 87, null], [88, 89, null], [90, 91, null], [92, 93, null], [94, 95, null], [96, 97, null], [98, 99, null], [100, 101, null], [102, 103, null], [104, 105, null], [106, 107, null], [108, 109, null], [110, 111, null], [112, 113, null], [114, 115, null], [116, 117, null], [118, 119, null], [120, 121, null], [122, 123, null], [124, 125, null], [126, 127, null], [128, 129, null], [130, 131, null], [132, 133, null], [134, 135, null], [136, 137, null], [138, 139, null], [140, 141, null], [142, 143, null], [144, 145, null], [146, 147, null], [148, 149, null], [150, 151, null], [152, 153, null], [154, 155, null], [156, 157, null], [158, 159, null], [160, 161, null], [162, 163, null], [164, 165, null], [166, 167, null], [168, 169, null], [170, 171, null], [172, 173, null], [174, 175, null], [176, 177, null], [178, 179, null], [180, 181, null], [182, 183, null], [184, 185, null], [186, 187, null], [188, 189, null], [190, 191, null], [192, 193, null], [194, 195, null], [196, 197, null], [198, 199, null]]" energy=-86.25553335417894 pbc="T T T"
H        0.15630158       6.12770321      13.35806164       0.28434570       0.16546454       0.45960839      -0.23315811      -0.21907214       1.55013380
H        0.25821360       6.23693462      12.65624856       0.21356546       0.26925397       0.10495735       0.20677234       0.24900551      -1.52030928
H       16.43164890       8.58810686      21.71511577       0.55232400       0.21636287       0.07197894       1.15477876      -3.76257140      -2.17000431
H       16.67651736       7.79293082      21.25670786      -0.48227926      -0.35923430       0.10491032      -1.16399306       3.76780267       2.16910958
H        5.36768860      15.02610322      10.42205530       0.19178425       0.37549366      -0.33819466      -0.09194784       0.42334048      -0.28217513
H        5.55305643      14.37871107      10.76855849      -0.26586820      -0.27839768      -0.41966027       0.18609251      -0.49837081       0.19580372
H       17.25429568      22.35893612      13.46657065      -0.04284764      -0.08666875      -0.29816382      -1.11895330       0.29804500       3.22082771
H       16.94049603      22.42965486      14.31777468       0.65942006       0.23530302       0.09304197       1.21668885      -0.20643970      -3.24262430
H        5.70153147      11.40961246      13.10813948       0.47485519      -0.14328831      -0.09189856      -0.40054458       0.83770785       0.30031253
H        5.33801325      12.10606367      13.32679104       0.31639779       0.10698478      -0.12123908       0.51425231      -0.85029518      -0.16985717
H        9.74204237       5.36981826       6.74794515      -0.53052286      -1.10271511      -0.22415679      -1.04660673       0.94292548       3.62440819
H        9.49281229       5.59235243       7.61183906       0.01325017       0.19362011       0.10046606       1.04999341      -0.86737572      -3.61779751
H        3.26752000      11.27233202      13.00984518       0.42301712      -0.07479353      -0.04298626      -0.09300854       1.83328894      -0.01983655
H        3.21811379      12.11948391      12.99449442       0.46455323       0.15037545       0.68638921       0.14562245      -1.89671149       0.00171599
H        7.50028494       3.88485849      14.67947782      -0.03676731       0.37464863       0.19113272       0.08225181      -0.02039019      -0.18997625
H        7.76370065       3.79985862      13.94526189       0.25197327       0.10923480      -0.11776158      -0.08675867       0.11877837       0.16074918
H        5.50968335      10.92405134      16.04554488      -0.23311639       0.17296456      -0.21620149       0.08943521      -0.22140817       0.00893439
H        5.15368937      11.57879144      15.85757865       0.11681102       0.67509774      -0.33898833      -0.00430712       0.28973627      -0.02290962
H       10.72292336      13.05773164      14.66675626       0.40514027      -0.08777091       0.06447977       1.35825006       0.35075244       0.72691766
H       11.42752340      13.22372316      15.08614009       0.58616215       0.29782532      -0.08109157      -1.33266736      -0.31916317      -0.82926567
H        8.72415559       0.19192824       0.43358925       0.24721089       0.28929257       0.14848575       1.12510788      -1.36665999       1.79602073
H        8.87585781       0.93833308       0.56909251       0.22441556       0.49693060       0.12852566      -1.66310664       0.01032997      -0.35467387
H       20.64432407       3.51522766       3.24823867       0.57983823       0.44594611       0.65632868       0.16601321       0.44599843       0.38594229
H       20.39286125       2.89891448       2.89192959      -0.19643076       0.36741965       0.54578620      -0.23148058      -0.47419111      -0.25136922
H       10.23139698       4.89274902      12.37414904       0.56505040      -0.22283019      -0.06898553      -0.28890416      -0.33355473      -0.07619378
H        9.53574925       4.55954656      12.17732163       0.01658492       0.23007976      -0.48236893       0.44152292       0.22931403       0.10189635
H       13.94857023      18.30539823      11.79597222      -0.02300125       0.24187183       0.03685841      -1.24554649       1.34370476      -2.18844826
H       13.32674073      18.55309513      11.38257513      -0.05725217       0.79541638       0.55545121       1.48743896       0.87892768       1.50465650
H       14.51383981      22.39344716      20.55635689       0.59619154       0.37381245      -0.25592282      -0.88185901       1.37565609       5.69547578
H       14.22135703      22.51544826      21.50726720      -0.29736188       0.14320305      -0.24866578       0.94773595      -1.65748129      -5.15866383
H       22.01427125       7.33017099       0.65731539       0.10836621       0.40618135       0.23415686       2.19454585       0.41615853      -0.67568462
H       22.33667948       6.91927549       0.03106550      -0.59190456      -0.74406863       0.36119925      -1.98635552      -0.62812802       1.00359189
H       10.96815092      22.14679187      15.12250324       0.30938565      -0.25948379       0.45161014      -0.14109133      -0.16600719       0.33923363
H       11.19325388      22.44918409      14.45973085       0.40053158       0.10195699       0.31655370       0.08971590       0.07372929      -0.36926612
H       17.78478838       5.73565748      22.48484340      -0.24630463       0.28770692       0.00263265      -0.18156723       0.23964973      -0.65564915
H       17.26042706       6.36371266      22.41898893      -0.96744693       0.43829739      -0.12141296      -0.48620062      -0.47926106      -0.24615050
H        8.71396593      13.62887683      12.91735005      -0.04238909      -0.24177283       0.15268385       0.62313147      -0.62472403       0.28906521
H        8.20546660      14.13857139      12.72638269      -0.81760146      -0.19095802       0.81079899      -0.55806684       0.51230279      -0.22116770
H       15.85696686      10.24243741      14.94482783       0.66489944       0.12374314      -0.02848628      -0.37890828       1.02415743      -0.87269713
H       16.25996843      10.19675741      15.49605699       0.60298928      -0.41433801      -0.40491183       0.66499122      -1.16322361       0.02902543
H       10.41578979      14.14981895      10.72969052       0.53405924       0.08491838       0.33015503       0.06977753      -0.67255677       1.54333437
H        9.81684391      13.58534377      10.82700635       0.12420029      -0.00512145      -0.42957269       0.83291890       1.11274742      -0.83890805
H       11.90261240       8.40620042       5.27177926       0.55017652      -0.74893816       0.11201430      -2.06978664      -2.87290699       1.27475154
H       11.16320117       7.95803559       5.29950981       0.24387424      -0.06541286      -0.02504213       2.48862683       2.34603269      -1.08156186
H       22.17381669      -0.06866360       2.73033493      -0.35222946      -0.43781710      -0.50348972      -0.14156938      -0.53487767      -0.18587094
H       22.25233899      -0.09625380       3.46780160      -0.33090471      -0.71477936      -0.37882203      -0.03826845       0.60504334       0.19294932
H       -0.03157157      22.28640020       6.30187011      -0.26939600       0.35413099       0.21897009      -1.22304403       0.19345629       0.76054293
H        0.43811189      22.52080835       5.80237780       0.00125243       0.31097229       0.38039897       1.05011393       0.07598423      -0.07949400
H       11.97773549      20.40850157      11.09979863       0.70984115      -0.02264274      -0.18766966       1.60350564      -0.26732542      -0.42795933
H       11.30864631      20.38959737      11.07711787       0.20041370      -0.77059711       0.87611493      -2.38242118      -0.48830051       0.55279200
H        1.83032840      18.77070089      10.69108467       0.27537192      -0.39839709      -0.60762622      -0.31112478      -0.64490996      -1.11856441
H        1.93201823      18.72887295      11.43197397       0.07188660       0.36394497       0.00919700      -0.20794174      -0.18147645       0.75737397
H       20.84738329      13.38792021      12.45297182      -0.07864678       0.02227025      -0.14805593       0.15243104      -1.27933603      -1.23285176
H       20.94089726      12.69225071      11.97993880       0.08709799      -0.02106238      -0.38146639      -0.09628833       1.29029356       1.27891344
H       15.41157724       5.68055889      13.89836050       0.40220109      -0.05002635       0.18711592      -0.89683936       1.47458163       0.82351783
H       14.72073800       6.12995703      13.96117788      -0.23230267      -0.23433612      -0.60987220       1.16174782      -1.00942608      -0.46441213
H       10.13082302      17.39924387      11.31382291      -0.22639614       0.26456170      -0.18437738      -3.05521965      -2.84095690      -2.19322983
H        9.50397413      16.82186973      10.86030372       0.04624744       0.16088422      -0.66264284       3.08895050       2.85973589       2.04523583
H        0.55147701      17.67447275      18.94693039       0.02605697       0.27115793       0.08373699      -0.77605995       1.05506768      -0.42858871
H        0.18848992      17.29753641      18.30371035       0.64733853      -0.28458431      -0.45904046       0.92165113       0.63609160       1.25492773
H        5.95817557       9.34510531      12.05929466       0.45794626      -0.08548620       0.09564111       1.35913364       1.07648170       1.60405621
H        5.66249749       9.31148705      11.42986503       0.52770180      -1.01140828      -0.38200184      -0.02745537      -0.58689998      -3.00447188
H        0.23812510      15.00204338      12.34674788      -0.02498099      -0.90714596      -0.41297590       1.07166964       2.55635264      -2.90662911
H        0.42016816      15.74755714      11.79588375      -0.24106437       0.46118468       0.63303800      -1.67241582      -3.43633052       3.68544912
H       21.16348112       0.72227856      14.15715389       0.36035155      -0.33464706       0.13465002      -1.56651213       0.85038997       2.32281527
H       20.83817235       0.73443753      14.93131198      -0.12718779      -0.55457376      -0.34613370       0.88278809      -0.39483658      -2.27669166
H       19.49805756      12.80980859      15.09148834      -0.17567756      -0.01404113       0.32567957       0.89398683       0.30599099      -0.15607341
H       19.50227736      13.31687811      14.49596230      -0.52187593      -0.01328647       0.06596427       0.11049371      -0.57849690       0.75908886
H       22.09527078      12.78633204       8.02624057       0.33318712      -0.20487097      -0.12238435       0.58501200      -0.01327443      -0.95559474
H       22.00704013      13.09213991       8.71430988       0.24010320      -0.01574149       0.24258138      -0.43700720       0.34681020       0.88463853
H        1.80795797      13.74465896      11.06213294      -0.50562787      -0.21667386      -0.88962700      -0.19266638       0.05292517      -0.13660540
H        2.16435487      14.38316328      10.81484052       0.29773286       0.29143827       0.09429037       0.07245490       0.15121483       0.12975476
H       12.92977444      13.53788095      13.38010657       0.03415893      -0.64007750      -0.07129382       0.05963912       0.37786822      -0.53632441
H       12.70472137      14.17155862      12.93174486       0.39079175       0.10239235       0.18312674       0.07679711      -0.61469371       0.71370968
H       14.16513542       1.47394140      14.41355221       0.70836104       0.31537874       0.47655779       3.37314137      -0.82994172       3.01814478
H       13.67426194       1.49586302      14.04938716       0.06104255       0.07402148       0.44127823      -3.71730975       0.39428841      -3.33855996
H       18.60532694      11.74125372      12.03890803      -0.22218720      -0.24996128      -0.09551102       1.36190990      -3.93155120      -1.41019913
H       18.86121658      10.88348479      11.71878149       0.16256245      -0.06063252      -0.13873714      -1.49108174       4.02929601       1.38631328
H        3.43984463      14.61722162      14.37325435       0.56513806       0.11997883       0.38279520      -0.23351594      -0.24565351       0.63034078
H        3.29390978      15.08109110      13.77676912      -0.27262278       0.16183991      -0.24730638      -0.30577265      -0.22995989      -1.18623360
H        0.66497922       6.68611204      15.74433227      -0.04595516       0.34597750       0.31545156       1.14977983      -0.96183493       0.19619887
H       -0.02217967       6.92518008      15.58940277      -0.38446937       0.94592779       0.37752316      -1.43382714       0.60375583       0.02131218
H        7.10675705       8.71440669      21.81540936       0.87823639      -0.32162576       0.03511953      -0.34335092       1.05303546       1.38805625
H        7.14504374       9.32067884      22.37698959       0.13178695       0.12018690      -0.29850377       0.22745632      -1.71248813      -0.79227935
H       12.97453492      -0.08136457      12.40289839       0.19987292      -0.97641353       0.61806849       0.16137142      -0.30912139      -2.06877872
H       12.83003554      -0.01474109      11.57616984       0.16357031      -0.30624505       0.59746777       0.47445067      -0.35340354       2.20077636
H       19.89333144       9.04700432      13.54320867      -0.44703144      -0.04481763       0.56809339       1.38690427       0.32292051       3.84494074
H       20.33489788       9.33120514      14.29322869       0.00812804       0.51569436       0.39780445      -1.99124805      -1.07724894      -1.74459279
H        8.22872835      10.69553645       8.35163205      -0.43046325       0.37270366       0.42682156      -0.42936999       0.57096157       0.25703568
H        7.88144922      11.36592995       8.53263890       0.16101835       1.16902646      -0.17216805       0.61386121       0.17271410      -0.81606628
H        8.28596121       9.71980015      13.86236624       0.20714350       0.25119927      -0.17160857      -0.17854169       2.90239769       2.00652471
H        8.11740967      10.49700645      14.26492593       0.02566299       0.04442823      -0.37847910       1.40417236      -3.60392914      -1.63408555
H        0.42399530      22.19328681      15.85575273       0.24114001       0.14688913      -0.12471101       0.26933195      -3.36255795      -3.37052088
H        0.37856921      22.51338976      16.36557089      -0.03343602       0.81029021       0.26964507      -1.18496305       2.55889414       4.33914729
H       16.76814138      13.82641537      10.25508944      -1.03922837      -0.05350295      -0.50992197       0.52176866      -0.18195258       0.35458735
H       17.17601969      13.49022872       9.67010029       0.16662726       0.02234200      -0.51504351      -0.43492641       0.52273121      -0.58760795
H       12.80041090      11.34537583      11.97293423       0.14980499      -0.01701295      -0.14860068       0.65939432      -0.02368107       0.22840725
H       12.38999262      11.74225366      12.51472958      -0.27165775       0.24176293       0.15090438      -1.39298289      -0.08332996      -0.12550984
H        6.63612055       6.07137957      11.08916411      -0.14770661       0.11518692       0.47905765       0.66478140       0.35522936      -1.24140493
H        7.20441258       6.51447632      10.64077338       0.09616150      -0.07098034       0.12156476      -1.09660703      -0.27322407       1.01862992
O       12.02988867       0.85836523      17.09062381      -0.59935710       1.73392481      -0.41012880       1.98885912       0.17930736      -0.58812047
O       11.23344147       0.81304564      17.98761690       0.50863675       0.31769176       1.55683731      -2.07877446      -0.02054318       0.11105861
O        1.13840757      21.91546974       8.11641799       3.58461828      -1.93173072      -1.01578053       8.17171031      -2.70819021      -4.87315309
O        0.09689273      22.11451885       8.82167102      -1.72875969       0.79499173       4.48360842      -7.87595936       3.29489003       4.52880289
O        9.62293665      11.52958403      12.07068172       0.85409757       0.11238727      -4.06784921       0.53777121       0.21508997       1.19670907
O       10.08312217      11.44387964      13.26211830      -0.42727197      -2.08546592       2.49997603       0.12851121       0.65206854      -2.47212482
O       14.72540123      19.90731525      -0.00157000       0.64776143       0.01913980      -0.77903734      -2.97908815       3.71170643      -5.31147068
O       15.16749350      19.17349445       0.85345870       3.71186427      -2.98640929      -0.99482674       3.73641921      -3.71095247       4.54379538
O       13.49767262      14.22419851      16.48385180      -3.99954766      -2.49876948       0.00068498       1.55255670      -3.59336929      -4.38475067
O       12.68338649      14.72637048      17.13602332       0.30932829       1.46069241       0.75163745      -3.02801753       2.11422231       4.58535819
O       10.63598231      21.55295697      21.09007525      -1.58973858      -1.69717481       2.65748047      -2.17180653      -3.19294295      -3.32407064
O       10.97794213      22.38986263      21.86060909       2.01107674      -1.81941036       2.59867313       2.77721964       3.64718564       3.17868371
O        9.61896481       8.76874140      11.76702021       0.95555911       0.41781427      -0.47000943       0.32659427      -0.88261018       3.47343765
O        9.51859549       9.53587307      10.84435314      -0.66730458       0.20364443      -2.76232017      -1.36417931       0.96232243      -3.23342598
O       17.94124304      17.44293718       5.48065411      -1.13818627      -1.03313571       3.07670745       1.50117189      -1.31987573      11.29431123
O       17.77755386      17.58720160       4.25509008      -0.67354865       3.89845507      -2.85002159      -1.50838438       1.32899830     -11.29348630
O        8.90758728       4.75237145      21.86871867      -0.69474223       0.82951482      -0.20389648       1.33959902       4.80549568      -0.33194836
O        8.57875995       3.61595264      22.08802872      -2.47493883      -0.32589324       0.50576659      -1.31695560      -5.12778425       0.09587876
O       22.07571860      14.21012996       1.17120087      -2.57372316      -0.57760402       1.25887307      -4.52827807      -4.20421767      10.11821468
O       22.48173724      14.60807979       0.05660442       0.88576175       2.52101264      -3.68263754       4.38299791       3.76136199      -9.36128913
O       16.89079584       7.72421036       4.03503399       1.16846938      -0.92121281       1.68809742      13.26641031      -2.38321828       1.17576664
O       15.69406973       7.91038749       3.92316055      -1.93582170       4.95191015       0.85099982     -12.62431898       1.98743985      -1.94339951
O        5.34403796      14.19264996      21.79758243      -1.85585502       2.25545968      -0.25663082     -10.77321008       3.38097951       1.65345803
O        6.54617389      13.93523235      21.54463195       4.07537989      -0.58626737      -2.40771748      10.55846460      -3.22579185      -1.71001654
O       12.11486512      16.81206515      15.48189954       2.38978689      -3.36191159      -1.93034646       3.25956487       1.66022899       2.36036123
O       11.15205009      16.43242723      14.93953768      -0.21461288       0.24006112       0.26414361      -3.30226434      -1.80710355      -2.56520547
O       19.21533868       3.67215218      10.82576467      -2.18656786       1.69569343      -0.47452882      -7.25308111       8.95288325      -2.55026275
O       19.93603060       2.73019343      11.08449762      -1.58756594      -2.53041920       1.74472053       6.98386033      -8.59160215       2.23149864
O       21.96850806      12.67157730      21.10215847      -4.05254283      -1.62561222       1.22183358      -4.47643533       2.79187322     -11.50023188
O       22.40607934      12.41333047      22.17908340       0.66800099       1.50611352       3.24211340       5.02920385      -2.77335348      11.59991873
O        5.92975129      14.68686599      13.91194257      -0.93231688       2.38315444       1.17807339       0.30120606      -0.44950035      -4.38573070
O        5.79780415      14.77298882      15.08005338      -3.33518422       0.74776292       1.35130437      -0.86424419       0.16549963       4.53090042
O        5.85426773      22.09138282       0.49229906      -2.53384556       0.33749290      -1.10814083       1.05023337       0.18794986      -4.85017083
O        5.51035019      22.12327378       1.68176089      -1.08103991      -0.90930086       3.62950468      -1.01454585       0.57957729       5.33986986
O       18.72206447       7.92099634      11.43451038      -1.66689413       1.47263858       0.47988146       2.80656144      -2.75274485      -1.24742067
O       17.94816601       8.81211693      11.52531406      -0.31236587       3.26392761      -0.37785865      -3.20629421       3.34790303       1.60770913
O        7.81460284      16.98282860       1.32360024       0.13197583      -1.27783276      -5.33341967       0.67638004      -5.08428959     -13.26910943
O        7.76367797      17.07447867       2.54297982       2.63222681       1.38734879      -0.30224551       1.03095421       3.73828629      11.99474785
O       15.67353298       0.29642573       8.83265153       2.02175359       2.18738423      -1.53675799      10.30687678       1.92446992      -2.06999391
O       14.45123102      -0.01921151       8.90507457      -4.74901568      -1.64423989       0.72313810     -11.90258225      -3.38106294       2.52657712
O       10.24588223      11.49192525      16.14118763      -2.55731024      -0.52434744      -3.40044851      -2.27765028       5.10770973       1.54684420
O       10.73222941      10.57551339      15.61666638       0.32117465       0.11793065       0.94366801       3.11815571      -5.15130450      -1.65040471
O       16.11712016      13.04240613      14.10836429       3.67721533       1.10738196      -0.52981837       0.72945799      -1.86348767      -4.96317601
O       15.76792935      13.34203556      15.18616234       3.83690536       2.11081875      -1.56265465      -1.57256261       2.54103322       5.47319432
O       15.37335541       3.98327020      19.08451548      -3.47751383       1.26285935      -0.07363739      -6.23136863       5.10211837       9.98222800
O       15.95981202       3.58387966      18.10753492       1.95113759      -0.95551759      -0.99635517       5.31745352      -4.77193447      -9.66691535
O       16.03704614       7.52813046      12.78543418      -2.15046802       1.89288122      -0.04900519      -0.07162011       0.49447997       0.39234665
O       16.00547708       6.61455045      11.94802992      -0.34517045      -2.09498719      -0.84556283      -0.29157394      -0.39884147      -0.24968960
O        7.09806390      14.94049678      17.79022658       2.38275438      -4.04947451       1.62020325       3.87342568      -7.22642677       8.19823397
O        6.49714528      15.67976756      16.94872259      -3.22863131       1.28850280      -2.40656254      -3.67521193       5.56560986      -8.24794912
O       15.80581584       4.55994300      15.75707055       2.08070142       2.25065192      -0.40641932       1.16412322       0.17539013      -0.03541285
O       14.99528707       4.86270141      16.57670115       2.91671708       1.37061298       0.78291106      -1.10543854      -0.97009650      -0.09192132
O       13.84924285       9.02323216      14.90594312       0.67546854      -0.92130346      -0.26059138       1.57369465      -3.65623788      -1.45465458
O       13.43408986       9.94821123      15.54405802      -1.32634388      -0.84015120       1.67646094      -2.56346253       3.49665997       1.61417906
O        7.87856166      10.58571097      16.57753597       3.91628309       3.70772484       1.54878656      -2.10196000       2.64084627      -2.03352011
O        8.52361481       9.58248103      16.62486841      -0.93848035      -0.66747845       0.04964096       1.88741184      -3.14538273       1.32906151
O       15.56439046      20.17242233       5.38048528       1.29975088       0.48933403       0.00999150       8.74347720       2.21421578     -11.01031029
O       14.80813825      19.97103634       6.27314004      -4.58511401       0.41030341      -1.00944394      -9.14982110      -1.94535150       9.77441927
O       21.90042001      17.05301695      21.36070922      -1.18394373       0.38951252       1.57429031      -4.32756657      -0.74660575       0.14677846
O       22.32639380      16.77375478      22.41866376       0.43719000       0.18735245      -0.66066717       4.79478361      -0.09821576       2.24780093
O       16.54445879       7.76670253      15.54081195       3.12828435       3.55536147      -1.93670183      -6.91463745       1.32910304       0.06095920
O       17.64950698       7.64393380      15.61343099      -1.27838324       1.90225579       0.66306783       6.05677630      -0.94910769       1.01401940
O        5.53090037      12.96460803       7.84533702      -1.43047428      -2.37354441       1.50340349      -1.44088397      -0.34901516       0.19426350
O        6.10525665      14.02304714       8.15888746      -0.22126649       1.43240985       2.34087809       1.83424607       0.50710247      -0.01058032
O        7.15676726       8.32870293      18.06884094       0.15318386      -0.09430022      -2.04023749      -0.51951695       0.30026171       0.36882068
O        7.17173397       8.22822166      19.32149043      -1.56310085      -0.08767959       1.91300073      -0.09514237       0.31629770       1.46792827
O        3.93382200       7.05251851       8.71361310       0.88087185       1.42454061      -0.50034279       1.82702245       3.47103341      -6.52380888
O        3.43892566       6.22716971       9.39428898      -0.88281032       0.06500936      -2.16263729      -0.67951805      -3.10693699       6.52248594
O       22.18743636      10.06702697       0.17202832       4.24543885      -0.22725189      -2.93310961       9.05649678       0.18774913      -8.35019259
O       21.20188095      10.02933726       0.98020955      -2.32983430      -0.03050353       2.21276122      -8.72243952      -0.46229735       8.48117377
O       12.94801151      16.86982797      13.17764931      -0.22730055      -3.56687429       0.78846487      -1.25502583       0.29538830      -0.53478988
O       14.05307544      17.00403909      13.70114755       1.87355407      -1.01683911       1.99242841       1.35473213      -0.62525504       0.52972516
O       10.43982347      12.92214791       7.46061273      -2.40424719      -0.77588203       1.19903041       3.36948119      -0.78040103       4.35545128
O        9.57557535      13.24214174       6.73596690       1.78845913       4.16339865      -1.98749554      -3.40678246       0.54287893      -4.39983961
O        6.41446243       9.07237410       9.03738416      -1.72454912      -0.67576393       1.08626697       6.76386006       1.40299590       2.79487340
O        5.47230850       8.84379064       8.41793011       0.36738202       0.42540884       0.12457540      -4.36866472      -2.77884493      -3.41748046
O       17.35541126      16.18622747       8.23336583      -0.04141002      -1.18282033       1.15075085      -1.07217266      -0.39324721      -1.45972455
O       16.93372833      17.05584580       8.98041789      -3.49544731       2.00537622      -1.52048234       1.05557010       0.71853107       1.00886120
O        5.58408345       4.91886821       0.04325755      -0.87845511      -0.94995827       0.91440750       0.45758243       0.99488642       2.24825080
O        6.06328863       5.46046970       1.06216091       3.20441082      -2.41787814       3.35601203       0.41749706      -1.43441821      -1.79880253
O       12.59653873       5.37577708       4.72763512      -1.56628397      -2.58904203       0.62207142      -1.28443153       2.64394838      -2.61055551
O       12.98645228       4.58257600       5.51647981       1.41022779      -1.99369326       0.01683855       1.32931532      -2.66732365       2.65331427
O       10.98215562       5.15963893       9.94849246      -0.01752072       0.09780384      -0.06489567      -0.81417195      -1.08037780       2.22690928
O       11.30957716       5.81981815       8.98331375       0.99572483      -1.50488039      -3.74258702       0.65946336       2.21125462      -2.48312053
O        6.57667471      12.52615066       9.69675446       1.85948534      -0.26769977      -1.70872176      -3.73968944      -1.14825500      -3.33196355
O        7.53281399      12.72885761      10.31404246      -0.25155823      -4.86518576       0.10807934       4.03210068       1.26314638       2.92308784
O        7.63454505      11.94929431       6.03767186       1.49606042       2.72398968       0.99573079       3.28746567      -1.81444315       2.66469612
O        6.66823479      12.38150236       5.55116096       2.71462886      -1.33393265      -2.22540885      -3.59002869       1.68659670      -2.09666935
O        8.45975233       0.60616898       8.66674102       1.34186676      -0.39093701       0.65136542      -0.26621422      -0.00726518      12.83511150
O        8.47850139       0.59632373       7.48294246       1.04662412      -0.07926140      -1.87278057       0.19564117      -0.45338171     -12.83139143
O       22.01575007      14.65746626      15.79772988       1.27632002       0.65011558      -0.29608386      -0.10158309       2.41956550       0.77686589
O       21.96373278      13.60895166      16.38851944      -2.04393207      -1.54003069      -1.89157132      -0.18108722      -2.46307690      -0.44623073
O       10.80651879      16.03047187       9.04753365      -2.47526493      -0.50165229      -1.13418108      -1.75899239       0.92455610       0.54018066
O       12.00859629      15.85422858       8.93858654      -0.50817490      -2.34724986       0.24777812       2.20746512       0.07963244      -1.65825328
O       12.77530896      21.78761777       1.41939085      -2.71720100      -2.78258791      -0.24416492      -0.69176636      -1.60091715      -4.86531462
O       12.98571230      21.90278069       2.59898775      -0.93431575      -1.03268096       1.13664968      -0.00872284       1.09424659       4.55974637
O        9.08723232       0.02410499      13.72961098       3.49397719      -0.33890399       0.22965657       1.61899830      -3.51147172       0.89580345
O        8.88447372       1.12999402      13.35827476       0.41933945      -0.68070599       0.53087117      -1.11771213       3.71715395      -0.07373722
O       11.90922256       7.68335450      14.91711018      -0.98976639       0.36254238      -0.38157006      -1.85983181       1.86180658      -2.45836051
O       12.51202777       7.07700135      15.74465847       0.49241449       0.89509601      -0.35088592       1.79995286      -1.81858025       2.41028186
200
Lattice="22.43773069742029 0.0 0.0 0.0 22.43773069742029 0.0 0.0 0.0 22.43773069742029" Properties=species:S:1:pos:R:3:momenta:R:3:forces:R:3 connectivity="_JSON [[0, 1, null], [2, 3, null], [4, 5, null], [6, 7, null], [8, 9, null], [10, 11, null], [12, 13, null], [14, 15, null], [16, 17, null], [18, 19, null], [20, 21, null], [22, 23, null], [24, 25, null], [26, 27, null], [28, 29, null], [30, 31, null], [32, 33, null], [34, 35, null], [36, 37, null], [38, 39, null], [40, 41, null], [42, 43, null], [44, 45, null], [46, 47, null], [48, 49, null], [50, 51, null], [52, 53, null], [54, 55, null], [56, 57, null], [58, 59, null], [60, 61, null], [62, 63, null], [64, 65, null], [66, 67, null], [68, 69, null], [70, 71, null], [72, 73, null], [74, 75, null], [76, 77, null], [78, 79, null], [80, 81, null], [82, 83, null], [84, 85, null], [86, 87, null], [88, 89, null], [90, 91, null], [92, 93, null], [94, 95, null], [96, 97, null], [98, 99, null], [100, 101, null], [102, 103, null], [104, 105, null], [106, 107, null], [108, 109, null], [110, 111, null], [112, 113, null], [114, 115, null], [116, 117, null], [118, 119, null], [120, 121, null], [122, 123, null], [124, 125, null], [126, 127, null], [128, 129, null], [130, 131, null], [132, 133, null], [134, 135, null], [136, 137, null], [138, 139, null], [140, 141, null], [142, 143, null], [144, 145, null], [146, 147, null], [148, 149, null], [150, 151, null], [152, 153, null], [154, 155, null], [156, 157, null], [158, 159, null], [160, 161, null], [162, 163, null], [164, 165, null], [166, 167, null], [168, 169, null], [170, 171, null], [172, 173, null], [174, 175, null], [176, 177, null], [178, 179, null], [180, 181, null], [182, 183, null], [184, 185, null], [186, 187, null], [188, 189, null], [190, 191, null], [192, 193, null], [194, 195, null], [196, 197, null], [198, 199, null]]" energy=-95.2270976270527 pbc="T T T"
H        0.19972125       6.17132295      13.49541990       0.16142293       0.23437066       0.60412746       0.14833415       0.19366059      -1.16442334
H        0.30565306       6.30344481      12.69000755       0.20096459       0.17068708       0.29904471      -0.15398199      -0.19162158       1.16856096
H       16.56701815       8.56224892      21.67726492       0.53790174      -0.30362517      -0.33915466      -0.07101367      -1.13450534      -0.52268819
H       16.52172632       7.81209836      21.33595860      -0.75738064       0.38510988       0.41206803       0.06303525       1.14655510       0.50877105
H        5.43509594      15.08682947      10.32995481       0.36306538       0.05800872      -0.31024777       0.10465392      -1.61594866       0.76530034
H        5.48725468      14.31745988      10.67890236      -0.24551586      -0.06512695      -0.33805315      -0.10577077       1.60295070      -0.68526192
H       17.24890379      22.34580992      13.46229665       0.07908896      -0.10439219       0.20440126       0.42529058      -0.23422012       0.38207388
H       17.13134037      22.46629772      14.24015725       0.88507131       0.21932626      -0.52832740       0.12230178       0.51381539      -0.35129680
H        5.78728246      11.38956985      13.09335531       0.21829920      -0.09919263      -0.07211614      -0.80083970       1.06833542      -0.02688075
H        5.43087804      12.11512155      13.30426049       0.42273348      -0.07304749      -0.09619405       0.33804961      -0.97480250      -0.08382658
H        9.59081465       5.12052298       6.81021708      -0.64847437      -0.92688828       0.53794635      -0.38330506       0.72651762       1.83979040
H        9.52031968       5.59650479       7.53022318       0.18437543      -0.10295985      -0.76669819      -0.00063808      -0.56211334      -1.80080249
H        3.35867959      11.32947173      13.01702779       0.31270289       0.38811084       0.14800706      -0.11842309       0.77743849       0.71180150
H        3.34513819      12.12394937      13.14710928       0.56895749      -0.17258152       0.54797031       0.27698295      -0.87294437      -0.55322313
H        7.49235507       3.95969922      14.72309034       0.06014728       0.25472187       0.06851620       0.94334853      -0.90817415      -1.26163244
H        7.78862857       3.84176818      13.94692279       0.04756031       0.19874168       0.18306313      -0.64601710       0.83279649       1.44944348
H        5.42989024      10.97783629      15.98715927      -0.48733908       0.16897940      -0.33898120      -0.63345650       1.15679045      -0.94824985
H        5.19086812      11.75844213      15.79919063       0.35171702       0.76832139      -0.17336011       1.71659549      -1.15137885       0.64297185
H       10.88243040      13.04805877      14.69487601       0.88829068      -0.00611049       0.10261593       0.23302455       0.13643198       0.41548279
H       11.51879226      13.28946947      15.03070447       0.23539940       0.27483688      -0.35524552      -0.23406753       0.05819560       0.31646515
H        8.82490483       0.23456940       0.52005743       0.63082003       0.29374721       0.50307546       0.75970421       0.68805131       0.18912393
H        8.88216141       1.04482568       0.58324403      -0.15527265       0.29227908      -0.02715012      -0.44446365      -0.66977201      -0.23411201
H       20.78202758       3.59561337       3.43061501       0.44425834       0.11696154       0.78216122      -1.36624014      -1.56792361       0.93229814
H       20.34917588       2.99870292       3.01469739      -0.20207643       0.55965456       0.46080436       1.39121904       2.45153666      -0.22854770
H       10.32956987       4.82199068      12.33349178       0.20441316      -0.43601195      -0.23722505      -0.56417549      -1.07810181      -0.24408534
H        9.56813271       4.61897537      12.08389703       0.22125613       0.30488899      -0.36304453       0.64861571       0.52715769       0.51263883
H       13.91448945      18.41228885      11.74361247      -0.13595724       0.44278568      -0.34933835       0.68006122      -0.28071878      -0.14347095
H       13.33888399      18.77797798      11.55957550       0.01592057       1.08911010       0.79604464      -1.30736480       1.12878894       0.04168881
H       14.61621976      22.49475469      20.65485316       0.29289040       0.43217553       0.80682712       1.46379202       0.66166175       0.63115680
H       14.16911004      22.52706531      21.30349769      -0.14991589      -0.02961379      -1.22302571      -0.85314092      -1.66644426      -0.25719390
H       22.08998111       7.43621080       0.67382880       0.43943804       0.41485113      -0.04448134       0.79175516      -1.51048522      -1.34640985
H       22.13946582       6.73302324       0.17183790      -0.98423230      -0.61057022       0.76248133      -0.64542733       1.94154399       1.21139890
H       11.05345676      22.08722125      15.22497796       0.37893109      -0.08210029       0.40387491      -0.41041665       1.56424007       0.28147334
H       11.29344166      22.46953089      14.53204975       0.32476161      -0.00612978       0.26474553      -0.54615402      -2.41959367       0.16688956
H       17.69235887       5.85104115      22.48378456      -0.53724000       0.63404371      -0.03775449      -1.63149667       1.20809378       0.49956920
H       17.04101508       6.44015260      22.39048776      -0.70678633       0.19976424      -0.10929952       1.09986166      -1.73439848       0.79065301
H        8.68963565      13.57520823      12.95084384      -0.16141774      -0.09237280       0.19962377      -1.24599591       1.52322326       0.36070081
H        7.99838938      14.07982136      12.90066296      -0.82968102      -0.43258693       0.56110326       1.30524743      -1.82903798      -0.51652749
H       15.99962363      10.32021283      14.90502102       0.43250982       0.48508829      -0.30252752      -0.95058741       0.76720472      -0.41719782
H       16.42738534      10.05963544      15.42198707       0.68751367      -0.68741070      -0.17785994       0.54905806      -1.07241710       0.59388472
H       10.53722315      14.14616887      10.85515680       0.37978202      -0.16774041       0.56670772      -0.62224116      -1.18403548       0.90137454
H        9.87680825      13.59853918      10.70241226       0.49993770       0.19648361      -0.57036630       1.94212549       0.87339913      -1.56935343
H       11.99371174       8.18051724       5.33060924       0.35249553      -0.92928676       0.28820241       1.88366779      -0.16447693       0.38586309
H       11.31489171       8.01107571       5.26775161       0.78884437       0.34356748      -0.20917436      -1.85226409       0.03956464      -0.22465366
H       22.08788968      -0.16293921       2.60663027      -0.35934714      -0.23557458      -0.55899808      -0.37893198       0.40922042      -0.31124289
H       22.19837815      -0.24541729       3.37652739      -0.21545294      -0.61718984      -0.33301965      -0.34327801      -0.62246837       0.86961378
H       -0.12772533      22.37720156       6.35693161      -0.49312249       0.40995268       0.23532793       0.49873924       0.00598745      -0.28500247
H        0.47466419      22.59129545       5.90492073       0.25553115       0.08909668       0.41538473       0.38521576      -1.54029832       0.67861576
H       12.14748590      20.40818914      11.03817539       0.47336220      -0.07373143      -0.31185350      -3.57102043      -0.43135315       0.97785243
H       11.32240766      20.20438001      11.32529681       0.23551994      -0.69534826       1.08350026       3.57837345       0.90330316      -0.29489909
H        1.86805142      18.64074633      10.53424021       0.16510494      -0.62843683      -0.40831861       0.14984460      -0.66602505       2.89377889
H        1.92863184      18.82516159      11.41433179      -0.13097652       0.43408474      -0.25701741      -1.07806311      -0.16722281      -2.59469179
H       20.83282585      13.35230168      12.39752270      -0.01811429      -0.19601861      -0.46019698       0.03421337       0.10418815      -0.69957792
H       20.95532574      12.72518810      11.92327039       0.08308600       0.33871191      -0.11910292       0.33930187       0.10038728       1.00902886
H       15.47856181       5.70316035      13.96975117       0.10694936       0.27010951       0.34721701      -1.52296829       1.39992543       0.15739650
H       14.72354629       6.04941629      13.81739869       0.29755904      -0.45136741      -0.62816100       1.74677161      -1.13473077       0.00353852
H       10.00113925      17.37317824      11.22426975      -0.58290743      -0.26415473      -0.49762881       0.50349652       0.55949537       0.50860111
H        9.57439043      16.93837271      10.76161072       0.32664554       0.60286059      -0.32370523      -0.66393604      -0.51275716      -0.84930146
H        0.54886448      17.74187501      18.92629334      -0.05208871       0.32433718      -0.22205243      -0.46766167      -0.21653434      -0.57803100
H        0.37273518      17.27571757      18.27914455       0.94524700      -0.01137848       0.05822465       0.19987005      -0.40416956       1.01497277
H        6.08177818       9.34107557      12.09692783       0.40302611       0.05941926       0.09429020      -0.48367106      -0.27668049      -2.90344958
H        5.79994434       9.04183456      11.29201609       0.71327372      -1.12225368      -0.47309778       2.19683756      -0.16870010       2.23028278
H        0.25156052      14.88642052      12.20438813       0.02748223       0.03516606      -0.62038201      -0.27139102       2.60642866       0.35804103
H        0.32791104      15.73285905      12.01625040      -0.36578128      -0.55671136       1.01417626       0.32727886      -2.94722492       0.18212977
H       21.23437367       0.68793991      14.22645362       0.31680229      -0.02845860       0.28466051       1.52239000       0.64562178      -1.48608452
H       20.81948979       0.59632577      14.81175544      -0.11472471      -0.64473216      -0.41334761      -1.26694876      -0.29357051       1.73269632
H       19.48900514      12.82318446      15.16959540       0.04437120       0.23883431       0.18712554       0.02584788       0.50371406      -1.44271223
H       19.36028612      13.29909036      14.51460537      -0.56059881      -0.12412142       0.15731610      -0.22330448      -0.74626985       1.14290245
H       22.17294090      12.75841784       7.99338794       0.24236631       0.00828097      -0.06813127      -0.60909402       1.35898702       1.53612970
H       22.05796181      13.06382577       8.78795842       0.21156620      -0.21460569       0.26704425       0.26212450      -0.38663119      -1.34826400
H        1.67609382      13.74291223      10.83753934      -0.42515304       0.16865174      -0.97505352       2.01284457       2.12420363      -0.22519376
H        2.23074071      14.44047397      10.86250455       0.13232836       0.13275160       0.27876041      -2.37026294      -2.08519391       0.24029962
H       12.91593042      13.40808152      13.32666333      -0.16020926      -0.50346888      -0.37727285      -0.26953883       0.93145133      -0.40964744
H       12.79997345      14.17459340      13.00440000       0.31240372      -0.16928926       0.41665756       0.09038269      -1.32533251       0.00346026
H       14.38364595       1.54455426      14.59324376       0.84928884       0.32500646       0.74359280      -2.78036159       0.17598611      -2.29353812
H       13.61880883       1.51358857      14.08521089      -0.28901224      -0.00122610       0.15566152       2.66371383       0.12504366       1.58220738
H       18.58215086      11.59141802      11.99364179       0.00444116      -0.71799864      -0.34509408      -0.14969161       0.75357583      -0.21307115
H       18.85678982      10.96331015      11.72194132      -0.08088695       0.41370646       0.11000644       0.51324692      -0.83729301       0.57746453
H        3.57015472      14.66206173      14.44276985       0.41260779       0.32043263       0.07883582      -1.05479451       1.25701011      -2.71791876
H        3.21980586      15.10634072      13.73260022      -0.13721769      -0.14675333       0.03748868       0.89388754      -1.55892031       2.70906113
H        0.64217298       6.76065362      15.81865021      -0.24328412       0.33304011       0.29950326      -1.86021006       0.91071497      -0.56981404
H       -0.11859405       7.16815295      15.69580199      -0.27298081       0.93496572       0.51788545       1.60608961      -0.23875930       0.85579576
H        7.30802255       8.66158416      21.85672528       0.83875336      -0.17136422       0.15892485       0.19489951       0.18325197      -0.48324742
H        7.19552402       9.30670947      22.30112164       0.23370976      -0.17578605      -0.26065346      -0.03645496      -0.07937906       0.29909350
H       13.01204127      -0.33571966      12.48912026       0.07372173      -1.16119616       0.16195275      -0.08930475      -0.90642601      -0.06150185
H       12.89425483      -0.09811997      11.76903724       0.38627308      -0.39983104       0.93729472      -0.28677579       0.38417835       0.28405059
H       19.85207892       9.05694375      13.76644856       0.00025168       0.19593731       1.04061078       0.77775846       0.29611326      -0.57471745
H       20.28075031       9.41120451      14.33448261      -0.39057800       0.18526222       0.04720009      -0.57146581       0.12743523      -0.32824473
H        8.11666114      10.80963982       8.46244260      -0.42684330       0.70593233       0.44410125       0.29525199       1.33836332      -0.33827504
H        7.96746604      11.64049065       8.49217894       0.52945783       1.11679618      -0.18761264       0.11023585      -1.15308357       0.29920775
H        8.34562699       9.82202175      13.84143485       0.19048313       0.37868062      -0.12964463       0.05327328      -0.72804176      -0.50950636
H        8.14084971      10.44807264      14.14062369       0.03495532      -0.17087432      -0.45072813      -0.40026705       0.90035392       0.75090553
H        0.47979655      22.18695777      15.78961971       0.15664306       0.07014865      -0.23638384      -0.75374284       2.61725703       2.23053939
H        0.31810686      22.76273737      16.48912076      -0.35014199       1.01458625       0.43452897       0.96469072      -2.23386506      -2.41204721
H       16.54853848      13.77887742      10.12099916      -0.62683272      -0.28053752      -0.72133036       2.93191520      -0.81123912      -1.83909269
H       17.17624617      13.51899646       9.56302042      -0.18851624       0.18492212      -0.24026633      -2.80508696       0.98832939       1.46885481
H       12.82954620      11.38680461      11.95819766      -0.00239950       0.36176694       0.03028582      -1.24507569       1.93160344       1.79023602
H       12.31692382      11.76891463      12.54327760      -0.29119508      -0.13519831      -0.03302948       0.99604404      -1.35942507      -1.74424982
H        6.61998352       6.13241908      11.16584642      -0.06138335       0.32206087       0.22175831       0.42442535       0.28714123       0.15715591
H        7.17967779       6.49424331      10.69896854      -0.34041513      -0.17488666       0.30140297      -0.80537304      -0.43351018      -0.03010370
O       12.02685302       0.88441144      17.08174080      -0.47002181       1.67805816      -0.87613603      -0.45350309      -1.47225578       0.25167191
O       11.23876467       0.82045444      18.01801563       0.14367711       0.51615282       2.43581809       0.13492928       0.96189312      -0.34535618
O        1.21529353      21.88234577       8.08829414       6.05128914      -2.25281423      -2.43949657       5.67650482      -0.02754852      -3.41799750
O        0.05795590      22.13748443       8.89122496      -3.03933847       1.77708852       4.74940919      -5.62718647       1.48041765       1.66807426
O        9.63258665      11.52529044      12.01639913       0.89385599      -0.44169329      -2.51780943       1.50589184       0.05116761       6.55978789
O       10.07287214      11.41595635      13.29875700      -0.73446453      -1.79344939       1.97927468      -1.32677175       0.36035164      -6.61302975
O       14.73060916      19.91169793      -0.02551083      -0.09595566       0.70650229      -2.18955271       0.06293510       0.81968050       0.26572358
O       15.22954841      19.12014304       0.84486653       4.47933239      -3.58045286      -0.13846269      -1.36728629      -1.67089485       0.24362769
O       13.44356246      14.18369284      16.47405013      -3.16352573      -2.58919090      -1.19469121       2.95728446      -1.53493044      -0.98774172
O       12.67356552      14.75225067      17.15889847      -1.53590272       1.98979141       1.66981349      -3.83564075       1.22529392       1.39303090
O       10.60616543      21.52125515      21.12243773      -2.40277138      -2.33115011       1.61065582      -1.10531124      -3.99978138      -0.86859775
O       11.01126310      22.37024957      21.90419129       2.26769498      -0.49705850       2.93523145       0.13607837       4.01942181       1.57383715
O        9.63791228       8.77616706      11.76961528       1.42838327       0.72155055       0.70457502       0.22800738       1.23871473      -2.34816238
O        9.50581341       9.54119726      10.78979411      -0.97505019       0.45807620      -4.15263497      -0.63956534      -1.68329029       1.57091246
O       17.92509276      17.42770753       5.54447786      -0.98875240      -1.53434158       4.82870739       0.24192368      -0.71646386       6.96236069
O       17.76371847      17.64599336       4.19388586      -1.08024894       3.92310110      -4.95559693      -0.70238985       1.67217490      -7.08643698
O        8.89785909       4.76886985      21.86856632      -0.54702079       1.48198936      -0.16936235       2.04315639       2.90310668      -0.04596131
O        8.53246784       3.60147211      22.09379710      -3.44345922      -1.35763783       0.14798161      -1.66354434      -2.05710805       0.18891412
O       22.02331958      14.19151728       1.20314495      -4.15060691      -1.64715006       2.91921047      -2.05208404      -1.38179654       5.59156951
O       22.50508949      14.65410164      -0.01551145       2.11771456       3.46559672      -5.90546308       2.72690281       1.66034963      -5.78700815
O       16.91633789       7.71002114       4.05558951       1.07835556      -0.58579768       0.96865743      -6.45250572       1.11322779       0.14600456
O       15.64784879       7.98528679       3.92837283      -2.55991963       4.67772474       0.19642171       5.65304221      -1.17360223       0.52492487
O        5.30534176      14.23849196      21.79633536      -3.23799231       3.32281209       0.29885585      -6.25337800       0.30532301       1.76809684
O        6.62624913      13.92106874      21.50587116       5.83987528      -1.12455453      -2.83968960       6.40756870      -0.55130260      -1.94186463
O       12.15267801      16.76308650      15.45621124       2.80348679      -2.82616286      -1.24331248       2.52864468       1.27555464       0.95698385
O       11.14120568      16.43127405      14.94345607      -1.08273461      -0.06290348       0.09804008      -3.06020893      -1.69634168      -1.22263917
O       19.16620519       3.71709710      10.81747654      -3.84026087       3.46733867      -0.78032180      -4.02601650       6.77256840      -1.91390731
O       19.92454795       2.67595973      11.11587793      -0.20433167      -4.45815214       2.51711661       3.66845533      -7.27114160       2.10144728
O       21.90428117      12.64858144      21.10231285      -4.65460507      -1.20538652      -1.02717199      -1.82786317       3.60453807     -10.10770033
O       22.42818436      12.42849139      22.24948473       2.07169730       0.48961616       5.95044066       1.77637022      -1.61120711      10.51528804
O        5.91514927      14.72372026      13.91845831      -0.94712479       2.59058966      -0.13616866       1.21144775      -0.20137797      -2.76897491
O        5.74151126      14.78271923      15.10599638      -3.82556327       0.53872878       1.94818042      -1.46503528      -0.50485001       2.23359208
O        5.82300601      22.09669144       0.46709804      -1.48512360       0.30773030      -1.92235157       0.11308874       1.38120606      -0.80880353
O        5.49483474      22.11279816       1.74717331      -0.86657694      -0.46636544       4.94609851       0.77911660       0.38689056       1.44898460
O       18.70580158       7.94433292      11.43737527      -0.90425821       1.16566223      -0.17253018       0.68389864      -0.90742347      -1.02657496
O       17.93659764       8.86925293      11.52239580      -0.98966724       4.08895026      -0.10983947      -0.63515426       0.98146244       1.32105669
O        7.82097744      16.95080735       1.21852908       0.81830370      -2.34770474      -7.98708301       1.06203928      -2.16447508      -9.00704211
O        7.80244383      17.09670752       2.55402097       2.43543916       1.30057669       1.93144318      -1.24007218       0.55992585       9.84833694
O       15.71389150       0.32742141       8.80605956       2.08786649       1.63737894      -1.49517707     -11.53029448      -1.45925188       1.87277532
O       14.36130627      -0.05024503       8.91861206      -5.58119087      -1.90823294       1.03364413      11.54030383       2.30058394      -1.87712515
O       10.20514061      11.49698450      16.08742082      -3.14144621       1.10525338      -3.15247432      -2.37717914       4.13445003       0.92108829
O       10.74314835      10.56814838      15.63328021       1.19137580      -1.00076653       1.55396634       1.76019646      -3.41104626      -0.49448523
O       16.17698466      13.05503774      14.09117713       3.90040352       0.62142122      -1.63288719       0.93931656      -0.97528828      -3.86381810
O       15.82191399      13.37944768      15.17312998       3.26846702       2.90119376      -0.12906794      -0.90673789       1.26336300       5.19332147
O       15.31160606       4.01030266      19.09679296      -4.59432870       2.22208662       1.41886987      -5.68188929       3.34411007       9.19480287
O       16.00071631       3.56324003      18.07436562       3.30500296      -1.62805940      -3.13723610       5.16795452      -3.23324092      -8.73720912
O       15.99980298       7.55147981      12.78495905      -2.70184015       1.03349153       0.11870833       1.31156435      -3.70249580      -3.10807370
O       15.99993733       6.58044126      11.93628409      -0.58066911      -1.95643493      -0.64279252       1.20244061       3.80283442       1.79937742
O        7.14115303      14.87226065      17.82349152       2.94232211      -3.95719287       1.82447530      -4.80053777       7.15814510     -10.98427150
O        6.44568598      15.70877273      16.89848655      -3.43724847       1.99390562      -3.17264092       3.59105891      -7.70194560      11.09519963
O       15.84528741       4.59489685      15.74964985       2.81801134       2.25739937      -0.74170157       1.37588615       0.37377844      -2.62060875
O       15.03936071       4.88402035      16.59321501       2.76934758       1.20998289       1.24111479      -1.03988273      -0.06562248       2.73452216
O       13.86302363       9.00007695      14.90132881       0.84352927      -1.62643903      -0.03617290      -1.18298570      -0.79841473      -0.56364366
O       13.40563526       9.94304160      15.57296729      -1.69191243      -0.05466687       2.04446539       0.19233143       0.76633694       0.84406084
O        7.93905565      10.64294082      16.59962852       3.92884020       3.86263113       1.34289686      -1.01108578       2.25683683       0.09525630
O        8.51252789       9.56998862      16.62330174      -0.44567816      -1.01894848      -0.31125190      -0.33165905      -2.18492234       0.54678094
O       15.59893056      20.18213070       5.36302807       2.90714948       1.14949189      -1.97853500       8.03820440       3.97155305      -6.11097209
O       14.72161783      19.96983684       6.27904518      -6.30338806      -0.46474611       1.97201111      -8.80148705      -3.20321601       6.01465297
O       21.87573862      17.05774058      21.38154639      -1.80900427       0.57804448       0.65989361      -1.04072848       1.45229067      -5.14710000
O       22.32997562      16.77254120      22.41645120       0.15050501      -0.29427424       0.42891706       1.49762530      -1.28627546       4.81761601
O       16.57900559       7.82540594      15.50789650       0.98829998       4.22972289      -2.28316228     -10.92963194       3.11631703      -0.65433252
O       17.64506887       7.66969898      15.62985563       0.84574367       1.51320643       0.86076212      10.43943380      -1.85636927       0.48778810
O        5.50555521      12.92964646       7.87098719      -1.65212996      -1.97357748       1.65662827       2.70291812       3.33311349       1.08487168
O        6.10163175      14.04630026       8.19650289      -0.51379199       1.58653203       2.31230213      -3.43399889      -2.99595085      -1.48803314
O        7.15767502       8.32782972      18.04015885       0.24006486      -0.17500701      -1.39819664      -0.61507879      -0.48312297       2.56026798
O        7.14803193       8.22435322      19.35461306      -1.58477318      -0.52231623       1.83592549       0.19129435      -0.14350515      -3.40474395
O        3.95040730       7.08192419       8.69237347       1.11775433       1.98258623      -1.72657005      -1.35728484       0.01010729       2.10511131
O        3.42112593       6.21958871       9.37507690      -1.54984901      -1.15415865      -1.21298924       1.61175282      -0.17145375       0.24581402
O       22.26737359      10.06328107       0.11983585       6.09720016      -0.43195874      -4.13198952       4.69469571      -0.03581510      -4.51887991
O       21.15136264      10.03145144       1.02470164      -4.15068941       0.14587630       3.55993858      -4.69555849      -0.12903238       3.30041770
O       12.94840186      16.81244261      13.18203364       0.68974581      -3.86459368       0.11892600       1.95855375      -0.08471184      -1.19479910
O       14.08406596      16.98538514      13.72817120       1.54848180      -1.27869223       1.84242120      -1.95747879       0.19072989       1.32505564
O       10.40302162      12.90872163       7.48529536      -2.16789337      -1.23589697       1.73248030       3.77311206      -0.48827774       0.11652669
O        9.59672122      13.30671425       6.70564434       0.95533617       3.96205851      -2.01614739      -3.65731591       0.98378713       0.14784021
O        6.40545237       9.06189831       9.06849089      -0.03819164      -0.54543701       2.84528208       3.60900138       1.66555864       2.54938641
O        5.47416844       8.84872262       8.40639677      -0.10966603       0.24278109      -1.32750650      -3.35456551      -2.14779206      -2.74789977
O       17.35747465      16.15825379       8.24013352       0.67542227      -2.80129774      -0.44127538       3.43498561      -7.45068655      -4.86526107
O       16.88197496      17.09523259       8.96510477      -3.67823310       3.42948005      -0.02806526      -4.02171940       7.06808380       4.49927796
O        5.56633071       4.91122456       0.05956674      -1.39940915      -0.14492673       1.23440777       2.21256368       1.87878559       2.46228491
O        6.11733889       5.42185440       1.10536401       3.68505301      -2.88838207       2.40452771      -1.93815271      -2.42925622      -2.92219911
O       12.56654517       5.34432497       4.73082493      -2.14682444      -1.81088915       0.31754433      -2.39205425       2.01983597      -1.55468585
O       13.01040537       4.54522942       5.52173574       1.92897356      -2.99203407       0.28220980       1.62403093      -1.88601182       1.38843226
O       10.98002278       5.15871159       9.94957513      -0.08692580      -0.26800583       0.10268010       0.42510873       1.54053417      -0.09059008
O       11.33518404       5.80418697       8.92654575       2.28961922      -1.00177974      -3.50335398      -0.20038998      -1.46091464       0.69515784
O        6.59905962      12.51623874       9.65785476       0.96209359      -1.07354275      -2.86389813      -4.63266177      -0.61966212      -2.61682951
O        7.53813742      12.66296423      10.31639174       1.12468471      -3.23309880       0.33684125       4.55156738       0.90781745       3.21528406
O        7.65746151      11.98384111       6.05848564       1.74132235       1.95304604       1.70424152       4.35066418      -2.49146013       2.93381606
O        6.70404918      12.36298198       5.51593081       1.99761855      -0.93023102      -2.57188329      -3.97043920       0.94077456      -3.29184383
O        8.47959842       0.60102514       8.69640861       1.05058633      -0.55545465       3.16948147      -0.79617752       0.36893292      11.13691484
O        8.49286015       0.59471462       7.43569839       0.78747138      -0.19199340      -4.54172185       0.96480923      -0.07613962     -11.34670473
O       22.03354961      14.67154713      15.79913303       0.85320545       0.80160244       0.42348430       0.68950144      -0.09437007       0.67409993
O       21.92859449      13.57884287      16.36006307      -2.56961552      -2.59174992      -1.52348269      -0.29481945      -0.24026620      -1.34789468
O       10.77240421      16.02798099       9.02955774      -1.86227151      -0.19709640      -1.15921718       0.85162462       0.22082213       1.64008080
O       12.00445410      15.82041769       8.94349231      -0.26107350      -2.24059180       0.29139189      -1.12641402       0.23409264      -1.03775838
O       12.74047344      21.74455497       1.41107894      -2.18862237      -2.56782640      -0.76239543      -1.03833553      -0.07770195      -1.23746337
O       12.97571878      21.89234816       2.62291463      -0.03338766      -0.61305312       1.83284533       1.60384862      -0.47800259       2.43880570
O        9.14228403       0.00928218      13.73194772       3.69776761      -1.59698686       0.08317518      -0.44709650      -2.30807939       2.07115105
O        8.88501222       1.12724097      13.36515440       0.14487823       0.53089938       0.73294208       0.54035155       2.28893478      -1.54775332
O       11.89054407       7.68893388      14.90709636      -1.30786203       0.24745571      -1.14594396      -0.92169867       0.85418532      -0.23007273
O       12.52692986       7.08728726      15.74563551       1.41671461       0.52526515       0.22765352       0.85748338      -0.82157180       0.04877791
200
Lattice="22.43773069742029 0.0 0.0 0.0 22.43773069742029 0.0 0.0 0.0 22.43773069742029" Properties=species:S:1:pos:R:3:momenta:R:3:forces:R:3 connectivity="_JSON [[0, 1, null], [2, 3, null], [4, 5, null], [6, 7, null], [8, 9, null], [10, 11, null], [12, 13, null], [14, 15, null], [16, 17, null], [18, 19, null], [20, 21, null], [22, 23, null], [24, 25, null], [26, 27, null], [28, 29, null], [30, 31, null], [32, 33, null], [34, 35, null], [36, 37, null], [38, 39, null], [40, 41, null], [42, 43, null], [44, 45, null], [46, 47, null], [48, 49, null], [50, 51, null], [52, 53, null], [54, 55, null], [56, 57, null], [58, 59, null], [60, 61, null], [62, 63, null], [64, 65, null], [66, 67, null], [68, 69, null], [70, 71, null], [72, 73, null], [74, 75, null], [76, 77, null], [78, 79, null], [80, 81, null], [82, 83, null], [84, 85, null], [86, 87, null], [88, 89, null], [90, 91, null], [92, 93, null], [94, 95, null], [96, 97, null], [98, 99, null], [100, 101, null], [102, 103, null], [104, 105, null], [106, 107, null], [108, 109, null], [110, 111, null], [112, 113, null], [114, 115, null], [116, 117, null], [118, 119, null], [120, 121, null], [122, 123, null], [124, 125, null], [126, 127, null], [128, 129, null], [130, 131, null], [132, 133, null], [134, 135, null], [136, 137, null], [138, 139, null], [140, 141, null], [142, 143, null], [144, 145, null], [146, 147, null], [148, 149, null], [150, 151, null], [152, 153, null], [154, 155, null], [156, 157, null], [158, 159, null], [160, 161, null], [162, 163, null], [164, 165, null], [166, 167, null], [168, 169, null], [170, 171, null], [172, 173, null], [174, 175, null], [176, 177, null], [178, 179, null], [180, 181, null], [182, 183, null], [184, 185, null], [186, 187, null], [188, 189, null], [190, 191, null], [192, 193, null], [194, 195, null], [196, 197, null], [198, 199, null]]" energy=-116.76641390841789 pbc="T T T"
H        0.24049105       6.23558015      13.58233682       0.17723256       0.20645347       0.12534622       0.11112313       0.10945110      -0.80602824
H        0.35635919       6.34128539      12.78882320       0.18971485       0.10755611       0.58559884      -0.11823410      -0.10786153       0.80970262
H       16.69099387       8.51184904      21.60727723       0.53571077       0.00057361      -0.26164214       0.30077970       0.50780105       0.13790273
H       16.31188067       7.88731591      21.42070239      -0.91894190       0.26112884       0.30924137      -0.31138297      -0.48979384      -0.16933760
H        5.54429441      15.06462684      10.27825306       0.53753835      -0.14257744      -0.14908577      -0.02277797      -0.14581645       0.08561432
H        5.45272261      14.34243359      10.56938492      -0.08848703       0.17003542      -0.56545361       0.01865806       0.13656220      -0.01501242
H       17.29654795      22.29257726      13.48227887       0.30567402      -0.40464951      -0.09904225       0.58621651      -1.27466013      -2.08325185
H       17.32718591      22.52544986      14.14401210       0.75846279       0.33506251      -0.12582850       0.17338238       1.45695373       1.96006450
H        5.82290597      11.37651198      13.05829828       0.06207352      -0.01656920      -0.25187047      -0.39567129      -0.49111160      -0.23650660
H        5.54041742      12.07892851      13.26403571       0.45148487      -0.17223012      -0.23825417      -0.09229297       0.61284682       0.29826823
H        9.42166186       4.88445275       6.98050163      -0.78407078      -0.99435482       0.67434027      -0.34595694      -0.68403406      -0.26996390
H        9.54556876       5.57869994       7.32928876      -0.00820189      -0.05875117      -0.87847472      -0.28997451       0.78916536       0.22553089
H        3.43847508      11.43920544      13.02323918       0.35325481       0.31152065      -0.01263204      -0.34937090      -1.56541507       0.32113746
H        3.48234212      12.09692853      13.28227014       0.53646574       0.12993173       0.59847544       0.58357426       1.55132050      -0.15518379
H        7.53034742       3.97553598      14.69984234       0.32468027      -0.09068388      -0.07824568      -0.48763403      -0.89682182       1.78108286
H        7.80076132       3.91218605      14.04384782       0.07738296       0.37603752       0.34553565       0.80222366       0.69563473      -1.50885486
H        5.29265855      11.04350041      15.85266141      -0.57087140       0.45912186      -0.72270568      -0.20075547       1.61240792      -0.98971977
H        5.32618775      11.90787168      15.77462281       0.78120337       0.45516372      -0.02720419       1.70039649      -1.70224848       0.53789527
H       11.07415946      13.01728888      14.73689313       0.72933116      -0.30218323       0.10599948      -1.08635661      -1.31943679      -0.08932868
H       11.59749959      13.37148571      14.95962353       0.43767231       0.48385880      -0.15262559       1.16825667       1.64759851       0.94311242
H        9.04862460       0.30630517       0.62733185       1.01105737       0.19229660       0.33328596       0.57936182       0.66381941      -0.27407500
H        8.83701322       1.10473955       0.55263189      -0.23930217       0.22029336      -0.15547557       0.02764179      -0.77962182       0.34922736
H       20.83145032       3.57938636       3.61550345       0.07511978      -0.10953905       0.85572812      -0.84423478      -0.46758716       1.56388107
H       20.35259310       3.17478241       3.11003604       0.21484281       0.89228888       0.34392359       0.90597448       1.55090733      -0.73993645
H       10.35917225       4.69412347      12.26787787       0.14494828      -0.60609512      -0.32519845       1.31670141      -0.85667531       0.12918728
H        9.63154168       4.69784993      12.02434327       0.20948748       0.44383378      -0.18783552      -1.07515314       0.22946273       0.02191607
H       13.89510403      18.51503983      11.64109864      -0.09352530       0.56066051      -0.51163208      -1.21914186       0.95815653      -0.31435554
H       13.30663230      19.06189417      11.74017985      -0.18723776       1.09040461       0.78850694       0.97067913      -1.59391351       0.36967408
H       14.78646234      22.60893997      20.84129680       1.15568205       0.51807025       0.74066947       1.63779789       0.32580092       1.18042279
H       14.05216094      22.45185276      21.03122692      -0.78511651      -0.60305270      -1.04731011      -0.86864362      -1.54272702      -0.74867364
H       22.20168367       7.47083438       0.64341396       0.47484268      -0.21633945      -0.23201086      -0.32020766      -2.63055421      -0.83022228
H       21.88604630       6.67551567       0.36715962      -1.00536291       0.11210131       0.92972961       0.48976447       3.20752695       0.75758868
H       11.11488524      22.10668505      15.30234120       0.19073318       0.17020716       0.28574038      -0.94121108       1.32566978       0.76114252
H       11.33998779      22.42003731      14.59703978       0.14626591      -0.47874202       0.31841765      -0.21472141      -2.43972141      -0.37597755
H       17.52576726       6.03307876      22.49949594      -0.69737096       0.75055538       0.21828809       1.14763039      -0.29220735       1.75641698
H       16.89350323       6.45526257      22.37370499      -0.68524415       0.04460825       0.11682247      -1.17618581       0.20681685       0.43697715
H        8.59937933      13.58742912      13.03468288      -0.54577345       0.09050890       0.45462937      -0.43694655       0.83103313       1.02356081
H        7.84930464      13.91713711      13.02785573      -0.50161028      -0.87015971       0.34230836       0.52119842      -1.32196900      -1.28127714
H       16.10357299      10.43485874      14.86227680       0.63179727       0.37540253       0.08206579       1.55009223      -1.34247585       2.01121883
H       16.60626138       9.87944210      15.35378723       0.64530027      -0.76151558      -0.52599713      -1.79107760       1.11469347      -2.57174926
H       10.60367117      14.07795433      11.03330766       0.35247189      -0.38434907       0.80204829      -0.18069636      -0.17266577       0.03639804
H       10.06890726      13.64355866      10.54426078       0.99498546       0.15522261      -0.75161381       1.58660579      -0.36428785      -0.75737678
H       12.14356495       7.93398932       5.39225549       0.86291551      -1.17170173       0.26281723       0.89785170      -1.23832676      -0.00221980
H       11.43741768       8.07792676       5.21392241       0.18897534       0.33293864      -0.30756331      -0.89004835       1.11314159       0.10006791
H       21.97458433      -0.21894529       2.46971941      -0.57367724      -0.26706127      -0.49920177      -0.26551383      -0.31948948       1.45156017
H       22.11907192      -0.44401197       3.28676324      -0.49211020      -0.87784571      -0.47827990      -0.45225239      -0.14102203      -1.17459602
H       -0.21843468      22.47773776       6.40747499      -0.21624919       0.47145356       0.13452999       1.61476369       0.24551916      -0.70671351
H        0.51390562      22.56195009       6.03192336       0.11332979      -0.33497516       0.70655595      -0.77495837      -1.48455615       0.87032776
H       12.13865790      20.37904888      10.99378898      -0.53012503      -0.23005706       0.06916556      -2.76987973      -0.61590475       2.00520899
H       11.52080427      20.07179926      11.56378168       1.30841928      -0.35211043       0.75010680       2.89964508       1.47650666      -1.20333383
H        1.93023806      18.48134837      10.54037398       0.34431109      -0.60674374       0.39644120       0.18780506      -0.33991989       1.83666296
H        1.88256985      18.92639362      11.28057353      -0.28303859       0.42459521      -0.92591792      -1.03258181      -0.66534720      -1.39284493
H       20.82306528      13.33073188      12.28083908       0.01381086       0.12587796      -0.37085906      -0.73846584       2.36513613       0.83554434
H       21.00052746      12.78449474      11.90806845       0.32401485       0.07682008      -0.08105871       1.16222036      -2.09680378      -0.69336998
H       15.47633570       5.80031124      14.04417879       0.00923896       0.39294091       0.28516113       0.65263633       0.57980063       0.74257797
H       14.83460701       5.89075055      13.67376074       0.46796944      -0.74832155      -0.65251440      -0.28692021      -0.37897851      -0.65303357
H        9.90693896      17.35067666      11.15886905      -0.15986849       0.12450095       0.04862848       0.91528542       1.43336247       2.25620004
H        9.61366168      17.03258319      10.62302352      -0.04355999       0.04783839      -0.98010606      -1.89344551      -1.80632082      -2.34706869
H        0.51839363      17.80486964      18.85342144      -0.10350737       0.29445695      -0.29912269      -0.05020620       0.72034426       0.61263452
H        0.58833279      17.24995802      18.34813865       0.83616903      -0.20700484       0.35176044      -0.12389178      -1.45352167      -0.05815327
H        6.13635682       9.32299849      11.99131972       0.16126215      -0.18825493      -0.94194842       0.26279221      -1.39970199      -2.82207188
H        6.03246800       8.76376686      11.28079617       1.20333313      -1.12598986       0.35390739       1.92958612       0.70958162       1.92331149
H        0.24436615      14.90028086      12.08363564      -0.12303242      -0.18051726      -0.36322332      -0.69873215      -2.14221369       0.60646455
H        0.24882427      15.57499421      12.24249478      -0.26698815      -0.56360994       0.90285339       0.84827533       1.58661505       0.07707067
H       21.36047524       0.68568487      14.25555980       0.62098680       0.01131944       0.06733672       0.19351961       0.09284836      -0.06367614
H       20.78832767       0.42130204      14.75259756      -0.14132036      -0.82382287      -0.11481137       0.05499997       0.02580511       0.22709010
H       19.50959550      12.87854613      15.18080301       0.12177194       0.22323976      -0.00143598       0.53711046      -0.60599800      -0.13275793
H       19.21853725      13.24535387      14.59755490      -0.60272659      -0.26839736       0.36070046      -0.83038477       0.18541046      -0.19060689
H       22.21410785      12.79013494       8.03010654       0.14777861       0.29870260       0.28487189      -0.64136419       1.23150999       0.97400220
H       22.10783300      13.02141236       8.82793250       0.30065435      -0.14740018       0.14777298       0.10350384       0.08103343      -0.64151057
H        1.63409599      13.83222653      10.60763119       0.10948385       0.54452315      -1.00692974       1.05305284       0.80958508       0.29398621
H        2.18279648      14.37784676      10.92067899      -0.55316631      -0.46368188       0.17066817      -1.47695915      -0.71773816      -0.24626113
H       12.85547794      13.30336233      13.21022161      -0.25157459      -0.45904445      -0.58553359      -0.08243278       0.18906901       0.17301218
H       12.87100735      14.10691300      13.10755085       0.23764892      -0.48913000       0.36357391      -0.26238235      -0.65172644      -0.72134455
H       14.44862437       1.60809726      14.68067955      -0.30024246       0.26419392      -0.05671752      -3.28522880      -0.01377001      -2.35597553
H       13.64872440       1.53619236      14.20312748       0.51092632       0.18630891       0.74420204       3.11734873       0.35654582       1.69370307
H       18.55821307      11.48060901      11.90737465      -0.30278648      -0.07237257      -0.28547308      -2.11734197       3.31872652       0.44434386
H       18.89190292      10.99921932      11.74892624       0.42250550      -0.29220775       0.11353157       2.57239530      -3.51810788       0.06254463
H        3.63619013      14.75200393      14.39304796       0.19982616       0.29708552      -0.39678089       0.36690776      -0.33977222      -0.11909520
H        3.19822103      15.04771435      13.82376813       0.05669830      -0.20739946       0.50544484      -0.35135386       0.10339381      -0.06097102
H        0.51314646       6.87332309      15.89108765      -0.76289244       0.67719711       0.29427265      -0.89060808       0.78845383      -0.25078798
H       -0.13039802       7.39983714      15.82639752       0.05752580       1.10968219       0.61046567       0.56753534      -0.05403787       0.53782316
H        7.53437984       8.63554184      21.89434543       0.95238709      -0.12088939       0.02523883       0.37657541      -0.46520161      -0.80976126
H        7.25833683       9.25374337      22.22861253       0.27627738      -0.17337487      -0.23913610      -0.30315803       0.76880067       0.68033612
H       13.02210792      -0.64668427      12.55220308       0.03758375      -1.48667937       0.30432108      -0.18158943      -1.24500548       0.00177167
H       12.98219092      -0.15953558      11.98764262       0.26970996      -0.15049927       0.85940276      -0.34654489       0.71370200      -0.32813405
H       19.85931260       9.06029757      13.96180950      -0.05742777      -0.28417442       0.51320328      -1.16069702      -1.91270356      -2.36376427
H       20.19988709       9.47452871      14.36081283      -0.29296419       0.39585379       0.27373220       1.11506523       1.84143710       1.74888298
H        8.04024762      11.02652608       8.57336355      -0.22458603       1.14026981       0.35323794       0.37255618       1.76743902      -0.57249096
H        8.10580953      11.87032671       8.47352462       0.55879420       0.72376211       0.00257339      -0.49232297      -1.36906133       0.52574549
H        8.39681003       9.86156090      13.79795240       0.27804972       0.08432990      -0.23872979       0.38925367      -1.08225067      -0.65242967
H        8.13815328      10.46352508      14.05476935      -0.08435794       0.26721524      -0.22373071      -0.77432801       1.40655066       0.84323811
H        0.48559797      22.32309192      15.84754136      -0.14858881       0.98312012       0.64070591      -0.18962009       2.11504801       2.83345325
H        0.26638287      22.92493027      16.47598039      -0.11293623       0.28254914      -0.53052270       0.54152374      -1.46181267      -3.11398292
H       16.44797146      13.70472359       9.90114761      -0.29328378      -0.29365235      -0.96215878      -1.55361863       0.43627037       0.33273328
H       17.06093513      13.56455058       9.52895476      -0.59149650       0.15494928      -0.12538557       1.70248314      -0.28969275      -0.58010270
H       12.80756808      11.53491894      11.99687097      -0.11300086       0.80971071       0.27567457       0.18984676       0.84730550       0.08701754
H       12.24702923      11.69295933      12.50331706      -0.31568812      -0.41909522      -0.18145880      -0.49451650      -0.27173865      -0.08256193
H        6.58200409       6.20211110      11.25721268      -0.25313629       0.22505508       0.52766040      -0.67858211      -0.29967665       1.04376114
H        7.07388135       6.47872058      10.75234682      -0.42118985       0.10218307       0.10784614       0.11630752       0.20403402      -0.84907946
O       12.01857372       0.90361073      17.07344334      -0.79964885       1.02913938      -0.41855424      -1.52511117      -1.37712846       1.51046390
O       11.24280352       0.83122032      18.05059353       0.13865203       0.67773729       1.96259675       1.33864965       0.95676873      -1.76676869
O        1.30912927      21.85077900       8.05141978       5.70303274      -1.75293384      -2.59933874      -1.57770933       1.83616627       1.35537359
O       -0.00035883      22.16926313       8.96508884      -3.87301949       2.24445172       4.45903389       1.46470548       0.05335800      -3.20607115
O        9.65029567      11.52334819      11.99673503       1.24036637      -0.12286562       0.02697459       2.10037190      -0.19195223       8.76154609
O       10.05700476      11.39024436      13.31450754      -1.27019838      -1.80163728       0.01800573      -1.92066752       0.77078266      -8.87311281
O       14.73399849      19.91854290      -0.05289103       0.82287883       0.47815294      -1.08114410       1.92186361      -2.33408252       3.43575158
O       15.29477290      19.06675575       0.83865636       4.02262648      -3.44553580      -0.54748793      -2.97989944       1.78198914      -3.05750995
O       13.40009129      14.14422140      16.45825849      -2.21759416      -2.37440774      -1.23158335       0.54236377       0.13805319       1.24659991
O       12.64526724      14.78594068      17.18398319      -1.93085626       1.93283852       1.62073249      -1.37996887      -0.58094509      -0.73888590
O       10.56555749      21.47696424      21.14746288      -2.73451612      -2.80277721       1.85507543       0.60904644      -0.68613418       2.06248630
O       11.04536661      22.36930996      21.94968791       2.37136047       0.03167202       3.08123899      -1.55525927       0.65309675      -1.56039807
O        9.66047335       8.78970375      11.77428913       1.17012593       0.93915490      -0.23951123      -0.43509725       3.06941957      -5.23997456
O        9.48772811       9.54274029      10.72840032      -1.28839709      -0.24169446      -3.43496542      -0.15889940      -3.74777306       4.18707058
O       17.90830169      17.40511589       5.63235211      -0.97236604      -1.53623412       5.88582694      -0.77058805       0.57610959      -0.76377417
O       17.74446843      17.70466978       4.10301159      -1.37678086       3.83753166      -6.20837041       0.10981340       0.43029311       0.59936973
O        8.89499386       4.79086549      21.86466993      -0.26935699       1.08058366      -0.68229131       0.72750574      -1.19254360       0.83794900
O        8.47881926       3.57604150      22.09511180      -3.33008291      -1.57857435       0.17729814      -0.51639634       2.03798518      -0.76657074
O       21.96559945      14.16459272       1.26569248      -3.44341504      -1.61832797       4.89513587       1.03085866       1.58472043      -1.57420506
O       22.53965927      14.71214844      -0.11092195       2.49746274       3.75228431      -6.01327263      -0.10544719      -0.99799861       1.70927632
O       16.92023837       7.70507445       4.06924031      -0.73034950      -0.04019834       0.30143575      -9.60635154       2.42871018      -0.22452638
O       15.62205610       8.05198888       3.93277445      -0.76738185       4.02457352       0.32438999       8.72353339      -2.14329104       0.88707235
O        5.24722147      14.29448142      21.80513064      -3.79036150       3.81344011       0.83222545       0.53055780      -1.31686825       0.24662368
O        6.71859260      13.90380330      21.45886207       6.30867944      -1.03834043      -3.06022868      -0.42560655       0.95806217      -0.37605712
O       12.20724186      16.71906514      15.43923585       3.96279541      -2.71668294      -1.06403545      -0.55642571       0.23034821      -0.48409030
O       11.12235074      16.42800266      14.94138238      -1.63753634      -0.23954043      -0.03604184      -0.33376079      -0.63001406       0.25201019
O       19.10419481       3.77860921      10.80136043      -4.35659629       4.71173532      -0.61225210      -0.95931155       2.33214742      -0.68986377
O       19.92663173       2.60138379      11.15425169       0.52798817      -5.14081800       2.48187199       0.56961369      -2.78154946       0.90290559
O       21.82811085      12.63782475      21.07079505      -4.92649439      -0.11704685      -3.08371306      -0.39523507       2.91333704      -5.93050104
O       22.46216987      12.43415674      22.35680352       2.38122735       0.41910559       7.77427668      -0.04343148      -0.66882715       6.27832387
O        5.90719416      14.76141944      13.91313280      -0.01895711       2.36976637      -0.57899648       0.77992769      -0.14396140       0.06164809
O        5.68444990      14.79171813      15.13378427      -3.87077071       0.85679225       1.77948711      -1.28868992      -0.80254067      -0.80036792
O        5.80010479      22.11437350       0.44195642      -1.42288824       1.36159901      -1.38882190      -0.85410299       2.12153241       5.08962190
O        5.48587559      22.10838938       1.82151985      -0.34361175       0.03994069       4.45216285       1.87837290       0.20266665      -4.35199864
O       18.68971326       7.96207535      11.43195487      -1.27311803       1.72612815      -0.74219062      -1.36692747       1.47716874      -0.63221912
O       17.91574773       8.93759661      11.52000133      -1.38256596       4.33258152      -0.19825990       1.29748609      -1.33011752       1.09244393
O        7.83559529      16.91991433       1.08133444       0.89398563      -1.74499107      -9.26259484       1.15587933      -1.39838561      -1.55736491
O        7.83727804      17.11631971       2.59620523       2.04910190       1.12604391       3.39016476      -1.32574791      -0.48809157       2.80169306
O       15.71584982       0.33888222       8.79100576      -1.45878154      -0.02797143      -0.42257059     -16.45637292      -3.34135729       2.17831103
O       14.30348721      -0.07857826       8.93056060      -1.48472187      -1.69471559       0.59261550      16.40578643       4.31267943      -2.33687594
O       10.15268415      11.51896341      16.04260863      -3.39939358       1.77705121      -2.84807007      -1.04952073       1.16950252      -1.04909999
O       10.76440086      10.54720185      15.65537595       1.17996752      -1.51356138       1.64929993       0.55187824      -0.02818232       1.47060628
O       16.23862681      13.06618401      14.05645436       3.98429382       0.92208119      -2.61422341      -0.26885557       0.07266144       0.07599795
O       15.86945038      13.42545950      15.18366505       2.91708255       2.82654569       1.05473121       0.31140600       0.08768448       1.26099657
O       15.23636003       4.04969925      19.13498319      -5.52622568       2.86328010       3.60602827      -2.51486100       1.14137619       4.22561133
O       16.05534889       3.53333574      18.01413422       3.39972576      -2.06990713      -4.63166936       1.98491299      -1.26681654      -3.81591023
O       15.96486369       7.56313202      12.78085433      -1.96570431       0.43533503      -0.68681639       1.97337157      -5.38110072      -4.16492129
O       16.00055659       6.56217754      11.93335821       0.40065567      -0.57218140       0.22944849       0.71063318       5.60628193       2.66898841
O        7.18102624      14.82860370      17.82604269       2.21407330      -1.68054057      -1.53699680      -7.44426250      12.30815901     -13.37409755
O        6.39966749      15.72200215      16.87110655      -2.48556634      -0.60227551      -0.32225791       6.21855137     -12.42762250      13.26772047
O       15.89144838       4.62649349      15.73853185       3.20260386       2.16874543      -0.60708691       0.13491646       0.66077788      -1.00972097
O       15.08442609       4.90798684      16.61950532       3.04663956       1.66338690       1.60447163       0.30353787      -0.45350749       1.14707834
O       13.87836750       8.97503198      14.90162290       0.73304025      -1.61489375      -0.06097784      -2.75355330       2.26525311       1.82035284
O       13.37716746       9.94375864      15.60533585      -2.40757684       0.11279163       1.94983949       1.66230661      -2.38447710      -1.40288133
O        7.99622417      10.70541816      16.61464744       3.57098140       4.12008371       0.72297917       0.34292042      -0.79424033       0.22384061
O        8.50431970       9.55308305      16.62074341      -0.77002437      -0.93367302      -0.01413044      -1.76021527       0.67128016       0.54342349
O       15.65217521      20.20686253       5.32419533       3.88466929       2.04324314      -3.12775654       4.38976287       2.57997743      -1.23383019
O       14.61077002      19.95604265       6.31730635      -7.90827413      -1.17249133       2.59774061      -5.05884858      -1.75960163       1.15487388
O       21.84754145      17.07655284      21.38542175      -1.54306173       1.69294490       0.12397059      -0.82228720       2.38047382      -1.69564382
O       22.33579218      16.76394412      22.43790577       0.63287041      -0.88397255       2.09157680       0.28544012      -1.11550203       1.45114231
O       16.57553789       7.88652006      15.47244686      -1.03448233       4.17883722      -2.29994809      -5.82761497       1.61231381      -1.70077033
O       17.68069668       7.68755052      15.64775054       3.34984984       0.84605575       1.36932852       6.35447828      -1.17084079       1.44393930
O        5.48595458      12.90868945       7.90283639      -0.84729357      -0.97334075       2.66566598       4.57463738       5.31742616       1.68541297
O        6.08669676      14.06386027       8.22122649      -1.42127882       0.47240937       0.82099057      -5.35113767      -5.07269623      -2.48746339
O        7.15829639       8.32424873      18.02556680      -0.06456116      -0.79009503      -0.14755511      -0.64190411      -0.30459843       6.45876911
O        7.12188576       8.21969476      19.37136122      -1.78406379      -0.13225579       0.27844526       0.28172906       0.15821036      -6.79682302
O        3.96161992       7.10770844       8.66984908       0.26112205       1.47511065      -1.05065518      -2.02157736      -1.49272926       2.77851673
O        3.40341142       6.20782060       9.35333295      -0.86554622      -0.39563906      -1.31910262       2.24643086       1.45688485      -0.65732800
O       22.36528906      10.05998160       0.05640337       6.34906254      -0.17246223      -4.19435444      -2.41624779      -0.29431181       1.21235909
O       21.08107409      10.02991595       1.07891873      -4.90834138       0.01410674       3.20437150       2.52574220      -0.01636355      -2.51674526
O       12.96003490      16.75066967      13.18337194       0.86614952      -4.35217258       0.12694446       3.86480147      -0.09064182       0.46193003
O       14.10336351      16.96302965      13.75591619       0.76731664      -1.80295285       1.73253166      -3.96666756       0.28643322      -0.40467898
O       10.37665801      12.89287906       7.50933603      -1.60475894      -0.93511313       1.23120368       1.20509452       0.89039428      -0.80871525
O        9.60061679      13.37277150       6.67804977       0.01559661       4.74731575      -1.73221699      -0.85978696      -0.15246899       1.13358742
O        6.41226537       9.05370150       9.11827491       0.75311168      -0.24403366       3.72958637       0.73017164       0.57124387       0.37850683
O        5.46779988       8.85296190       8.38195935      -0.51766808      -0.00209255      -1.90547508      -0.51298841      -1.15345240      -0.77529937
O       17.37076728      16.09807299       8.22658055       1.40907899      -4.66891749      -1.16945146       1.98121425      -4.60513773      -1.90784271
O       16.82154427      17.16120833       8.96777703      -4.19569824       4.80149129       0.44235740      -2.55423424       4.16799463       1.86642278
O        5.55225115       4.91078533       0.08743959      -0.67445789       0.15018884       2.26486690       2.87604814       2.04143156       3.63798376
O        6.16818131       5.37185302       1.13501155       2.97181237      -3.47926950       1.49593459      -2.79453058      -2.62188674      -4.31242985
O       12.53032133       5.31835203       4.72834282      -2.58454610      -1.47952445      -0.22489072      -1.15913304      -0.30437621       0.93575808
O       13.04001710       4.49106388       5.53178851       1.82518214      -3.84098567       0.27079468      -0.34650709       0.21333704      -1.27203996
O       10.97867836       5.16038200       9.94693286      -0.05447831       0.33830350      -0.49820507       1.19184597       3.70381549      -3.03394747
O       11.37395430       5.78630310       8.86916493       2.53393813      -1.65902901      -3.54350950      -1.20473375      -3.17501498       3.15171694
O        6.60477341      12.48738255       9.60980506      -0.31058937      -2.62049833      -3.53451436      -1.96528655      -0.14259481      -1.01926945
O        7.55983542      12.61417347      10.32343637       1.71945296      -3.10854214       0.49105870       1.98463456       0.47052444       1.44168419
O        7.69243026      12.01067594       6.09382693       2.96101080       1.56226815       2.82252480       2.30236284      -0.89939511       1.40664604
O        6.73130844      12.35049949       5.47077110       1.50737896      -0.50534735      -3.42970447      -1.97034231       1.30970905      -2.30911738
O        8.49801798       0.59225484       8.75570367       1.15139591      -0.68669767       4.74522513      -0.72298639       0.39674321       6.59866244
O        8.51348670       0.59468826       7.35125327       1.55814890       0.09191114      -6.20448620       0.62385141       0.11389107      -6.76796854
O       22.04699832      14.68214676      15.80344709       0.71954205       0.38943036       0.43439023       0.34431098      -2.02346405       1.68248308
O       21.88856122      13.54138498      16.33408745      -2.51476393      -2.15262245      -1.94972799       0.13479687       2.49159005      -2.21658203
O       10.74011942      16.02312056       9.01764455      -1.61108508       0.07984819      -0.45991333       2.97363380      -0.18265552       1.25043340
O       11.99653753      15.78481153       8.94166434      -0.68887197      -2.36988955      -0.15024587      -3.45402063       0.70726827      -0.74290884
O       12.70106668      21.70892775       1.39611811      -2.81943480      -2.31402527      -0.77082128      -0.21744251       0.09935290       2.27073829
O       12.97735768      21.88226411       2.64710852      -0.00752044      -0.89812399       1.49835134       0.59618298      -1.01093702      -0.85148519
O        9.19591284      -0.01814655      13.73151094       3.33942457      -1.69362230      -0.36291297      -0.99524441       0.72201083       0.70826171
O        8.89117730       1.13990541      13.38087267       0.54171260       0.74026352       1.36824342       1.00236683      -0.81283389      -0.40659147
O       11.86990561       7.69437489      14.88568511      -1.18793784       0.47025195      -1.46548476       0.75325681      -0.72989733       1.70482413
O       12.54752442       7.08906700      15.75027010       1.04526226      -0.18025621       0.21960786      -0.81207522       0.69813187      -2.05379239
200
Lattice="22.43773069742029 0.0 0.0 0.0 22.43773069742029 0.0 0.0 0.0 22.43773069742029" Properties=species:S:1:pos:R:3:momenta:R:3:forces:R:3 connectivity="_JSON [[0, 1, null], [2, 3, null], [4, 5, null], [6, 7, null], [8, 9, null], [10, 11, null], [12, 13, null], [14, 15, null], [16, 17, null], [18, 19, null], [20, 21, null], [22, 23, null], [24, 25, null], [26, 27, null], [28, 29, null], [30, 31, null], [32, 33, null], [34, 35, null], [36, 37, null], [38, 39, null], [40, 41, null], [42, 43, null], [44, 45, null], [46, 47, null], [48, 49, null], [50, 51, null], [52, 53, null], [54, 55, null], [56, 57, null], [58, 59, null], [60, 61, null], [62, 63, null], [64, 65, null], [66, 67, null], [68, 69, null], [70, 71, null], [72, 73, null], [74, 75, null], [76, 77, null], [78, 79, null], [80, 81, null], [82, 83, null], [84, 85, null], [86, 87, null], [88, 89, null], [90, 91, null], [92, 93, null], [94, 95, null], [96, 97, null], [98, 99, null], [100, 101, null], [102, 103, null], [104, 105, null], [106, 107, null], [108, 109, null], [110, 111, null], [112, 113, null], [114, 115, null], [116, 117, null], [118, 119, null], [120, 121, null], [122, 123, null], [124, 125, null], [126, 127, null], [128, 129, null], [130, 131, null], [132, 133, null], [134, 135, null], [136, 137, null], [138, 139, null], [140, 141, null], [142, 143, null], [144, 145, null], [146, 147, null], [148, 149, null], [150, 151, null], [152, 153, null], [154, 155, null], [156, 157, null], [158, 159, null], [160, 161, null], [162, 163, null], [164, 165, null], [166, 167, null], [168, 169, null], [170, 171, null], [172, 173, null], [174, 175, null], [176, 177, null], [178, 179, null], [180, 181, null], [182, 183, null], [184, 185, null], [186, 187, null], [188, 189, null], [190, 191, null], [192, 193, null], [194, 195, null], [196, 197, null], [198, 199, null]]" energy=-103.66518967941447 pbc="T T T"
H        0.27720611       6.27547237      13.62296488       0.14356577       0.10191135       0.33479900      -0.21492549      -0.16391682       1.39830566
H        0.38538117       6.36588216      12.91316845       0.14846752       0.22051558       0.31360095       0.20410709       0.18000611      -1.36270846
H       16.80345553       8.49619402      21.55178981       0.36142561      -0.30189797      -0.23261388      -1.87378531      -1.36501003      -0.23486493
H       16.10912887       7.98320311      21.46863840      -0.73043004       0.58436076       0.23479389       1.87640680       1.40072454       0.21706566
H        5.68048891      15.05527152      10.23144907       0.52499119       0.11608987      -0.20308144       0.19199198       0.58033767      -0.15997575
H        5.43919377      14.37059280      10.42969683      -0.13052565      -0.05522392      -0.57135749      -0.21920576      -0.60414589       0.21266184
H       17.40180358      22.19216121      13.41730194       0.53142222      -0.40903097      -0.19942178       0.72997716       0.64739368       1.55442196
H       17.51983050      22.61672585      14.15504385       0.73749598       0.38383358       0.05723315      -0.23601046      -0.38503420      -1.78128133
H        5.83571010      11.36723573      12.98156270      -0.01584203      -0.05280839      -0.36098839      -0.34465387      -0.80353498      -0.09042430
H        5.63202834      12.06010672      13.22600129       0.30699945       0.00091142      -0.13175357      -0.35066125       0.79892856       0.14364716
H        9.25237946       4.67178739       7.12208017      -0.60300718      -0.63496508       0.54551959       0.86316465       3.20231464      -0.36053766
H        9.53587248       5.54726989       7.11372859      -0.07275535      -0.37173472      -0.94269630      -1.28468507      -2.67665388       0.38292633
H        3.49908687      11.48242219      13.00681981       0.18312122       0.09919431      -0.09518913      -0.21476266       0.38738406       0.95153012
H        3.61895260      12.14624022      13.42921285       0.57889993       0.18608509       0.63068440       0.03774301      -0.29948124      -0.82964093
H        7.61479610       3.92806517      14.74870720       0.31256651      -0.30383614       0.43731266      -0.74462319      -0.62723073       1.15654899
H        7.83813889       3.99570159      14.05808075       0.31072872       0.37009664      -0.24348950       0.59265802       1.02264195      -1.08611874
H        5.15660373      11.21188025      15.66567218      -0.56988877       0.88114141      -0.77832081       0.49385932       0.25497088       0.09892361
H        5.51136214      11.97441649      15.77207761       0.61973834       0.11021790      -0.03035935       0.01087483      -1.95282239       0.02684266
H       11.22411030      12.89952545      14.76285107       0.58089738      -0.47002653       0.22664657       1.48815681       1.14677515       0.85176306
H       11.74144394      13.53543831      14.94263303       0.57171851       0.66970606      -0.04862169      -1.80317851      -0.80752994      -0.23016719
H        9.32701705       0.38513846       0.70180321       1.02650879       0.52771016       0.30270646      -1.36441902       2.43931659      -1.13895826
H        8.79889710       1.11357881       0.53931817      -0.01377625      -0.14490227       0.11580825       2.06788525      -2.40580231       0.95509431
H       20.84829811       3.55366128       3.82810429       0.00848414      -0.15515582       1.09055480      -0.70609346       0.15248045       2.74023484
H       20.43260154       3.43012013       3.18615997       0.34872391       1.09755494       0.24487452       0.36598148       0.62250830      -1.77831471
H       10.41772235       4.53845747      12.17497932       0.17366781      -0.69219656      -0.38540193       0.47899904      -0.44949561      -0.01559326
H        9.68843331       4.79149283      11.98578293       0.21512620       0.31599321      -0.07626149      -0.64545341      -0.20901835       0.06535610
H       13.81197550      18.69724346      11.51752016      -0.56061843       0.99438389      -0.48129884      -2.09048650       3.07790809       0.84337368
H       13.32257847      19.29104515      11.92228082       0.26141630       0.61808616       0.64971591       1.55211999      -1.38710483      -1.03254611
H       14.98178036      22.69480357      21.03867838       0.01887245       0.03435368       0.72859144      -8.69948812      -3.77329037      -1.96819835
H       13.94062595      22.29194135      20.72709713       0.37640972      -0.48498436      -1.21529793       8.69765839       2.95646383       2.36263741
H       22.29140929       7.34656366       0.57401980       0.21224117      -0.66322066      -0.21208428      -0.95423946      -1.10499919       0.37252369
H       21.64396131       6.79672834       0.60915116      -0.96681059       0.76553942       0.89075139       0.65494042       2.04543129      -0.26056874
H       11.15286988      22.17893227      15.38286456       0.17011867       0.39194544       0.45412413       0.84000697       1.25498185       0.87495925
H       11.36259880      22.27375640      14.65758960      -0.05262555      -0.61345532       0.12834832      -1.46027475       0.21558424      -2.59141950
H       17.39997726       6.18396062      22.62187047      -0.39997135       0.55189974       0.72566329      -0.62654297       0.35859875       0.31680844
H       16.68358746       6.48344310      22.41498853      -0.98096468       0.04726760       0.07848103       0.26042050      -0.85009744      -0.83484198
H        8.45039159      13.59507432      13.16278078      -0.62248725       0.02323554       0.56992679       0.42957530       0.31906268       0.55486792
H        7.71700790      13.68320702      13.08967606      -0.58520028      -1.08478708       0.23442270      -0.66628371      -1.01338971      -0.34991096
H       16.27485142      10.46753332      14.92076225       0.82515050      -0.08913843       0.42235280       1.47591472      -1.34009838       0.81739684
H       16.71234533       9.74172528      15.14948887       0.29592449      -0.43203633      -1.10852973      -0.76357229       1.36717561      -1.31481472
H       10.66043037      13.96822807      11.20035053       0.13726525      -0.61398015       0.36878236      -1.09056475      -0.48154024      -3.06246544
H       10.37054947      13.68540426      10.35682589       1.42477144       0.20465023      -0.54276675       1.40495669       0.46212309       3.40445826
H       12.31281042       7.63650991       5.43002853       0.31266176      -1.01985923      -0.06147997      -4.85490903       3.46410139      -1.97512324
H       11.52515488       8.15562643       5.15070742       0.79847387       0.10813881      -0.01313577       4.83563701      -3.06932436       2.42654254
H       21.82419241      -0.30124121       2.40185518      -0.69227066      -0.48380626      -0.07759186       0.58467203      -0.75554785       1.37677964
H       21.99228878      -0.66808480       3.13021887      -0.59637517      -0.96375659      -0.78769301      -0.07179758      -1.08841743      -1.30236084
H       -0.23149759      22.57881374       6.41302881       0.01531997       0.37642486       0.03984879       0.04904499      -0.41625148      -0.55143896
H        0.55403617      22.44384307       6.24442093       0.24653574      -0.53316461       0.96629725      -0.13036150       0.28636427       0.65104128
H       11.97112206      20.31082823      11.02624093      -0.64457942      -0.27577262       0.08663691       0.35772204      -0.10318065       0.16306696
H       11.90522970      20.01309607      11.73809323       1.57387546      -0.02221838       0.78624474      -0.39652562       0.93286508       0.46196051
H        2.01556150      18.32487574      10.66865506       0.30183920      -0.59176100       0.62556115      -0.70490702       1.17263161      -0.08461034
H        1.78950934      19.01098901      11.02767564      -0.36966384       0.34717161      -1.03111448       0.89794462      -0.80148029       0.31551038
H       20.80661574      13.39124300      12.21964445      -0.09164445       0.34041807      -0.11824953       0.72935188       0.49861672       0.30231310
H       21.12609897      12.73468704      11.90611520       0.51837605      -0.34249192      -0.00032555      -0.26113478       0.11279035      -0.12494199
H       15.48965091       5.92527875      14.11502998       0.04650450       0.56602333       0.31883844      -1.83516458      -0.27445267      -0.93364579
H       14.93332798       5.68948269      13.50490809       0.40352618      -0.97955803      -0.58769175       0.20972786      -0.58615263       2.46581795
H        9.87189388      17.39017775      11.16356764      -0.22936440       0.05518530      -0.20271082      -0.83769254      -0.65755503      -3.77018376
H        9.57649221      17.00210792      10.35875587      -0.02716016      -0.09742317      -0.87285087       2.74600143       1.03895700       2.79750943
H        0.47921741      17.89619151      18.79286895      -0.20153325       0.30300039      -0.18102038      -0.12647464      -2.16596415       0.24461402
H        0.81406123      17.17353740      18.46383105       1.00363753      -0.22590283       0.58021143      -0.24157767       1.86488482       0.75528072
H        6.17937028       9.24285940      11.72001846       0.20343929      -0.41416847      -1.19135258       0.63049115      -0.33261619      -0.95516339
H        6.36457261       8.52269856      11.39308395       1.35451298      -0.87213457       0.53209610      -0.75680324       0.94479667       1.16103129
H        0.18959314      14.81726564      11.98692009      -0.25519948      -0.32098262      -0.43995400       0.43184985       0.79297675      -0.28739925
H        0.17174335      15.47312872      12.47338127      -0.35553176      -0.43577869       0.93773741      -0.34991040      -0.82643265      -0.21813233
H       21.49337146       0.66730980      14.30061162       0.20058746      -0.25316207       0.30227694      -3.03348853      -1.15619256       0.88216375
H       20.79369295       0.22906675      14.70138789       0.28353183      -0.61193510      -0.36272389       2.80403859       2.12348694      -1.16650255
H       19.54129280      12.91900260      15.17617089       0.20780755       0.10082950      -0.04576107       0.24340649      -0.07973284      -0.17991917
H       19.04688530      13.20616561      14.67156372      -0.79472360      -0.07202987       0.31186780      -0.82766142       0.79333471      -0.21046728
H       22.23860316      12.85658146       8.11109037       0.01866633       0.15209471       0.32398944       0.14659438      -0.60607507      -1.10644973
H       22.17349752      12.96426030       8.83304210       0.28078771      -0.27864779       0.00671613      -0.11028304       0.13609787       0.66008736
H        1.65581213      13.95059394      10.38247630      -0.04445021       0.47480847      -0.92133577      -1.05040567      -0.08874466      -1.34545350
H        2.03997021      14.22498020      10.95995572      -0.48051946      -0.65839459       0.18937192       1.06927809       0.67416103       0.58106306
H       12.81303627      13.20427181      13.06539857      -0.09389165      -0.38901066      -0.62365835       0.61605575       0.12611131      -0.68176040
H       12.91630564      13.97822671      13.17439729       0.17802635      -0.53789801       0.23328105       0.26901673      -0.35962510       0.89900336
H       14.34156323       1.67085425      14.65052121      -0.27765378       0.35923866      -0.06318303       3.56826920       1.16820842       1.72189232
H       13.79791198       1.57312790      14.40201706       0.42736038       0.04287447       0.74413835      -3.55623462      -1.51660202      -2.07634998
H       18.44157702      11.50612902      11.86415800      -0.48466441       0.04708965      -0.20494118       1.08467618      -1.26732071       0.17935439
H       19.03090105      10.86215669      11.76659653       0.44745398      -0.50277256       0.06927288      -1.76444075       1.52190189       0.51237750
H        3.73031109      14.79352207      14.33686510       0.58054838       0.06287307      -0.04670763       1.68822672      -0.63961582       0.34094444
H        3.18899189      15.01535047      13.92415714      -0.28894625      -0.03476048       0.28079320      -1.45524450       0.65770306      -0.43749258
H        0.31674007       7.03731442      15.93553605      -0.77871121       0.62323742       0.15693623       0.31629885      -0.28787089       0.42136834
H       -0.08396080       7.68656302      15.97421689       0.30837159       1.28498288       0.61457605      -0.17832731      -0.18146526      -0.02924038
H        7.76967169       8.58826369      21.87569480       0.81489905      -0.19353569      -0.00334174      -1.55046114       1.60848442       1.43226022
H        7.30692169       9.21009305      22.21705211       0.26491280      -0.31720974       0.03833127       2.01322091      -1.84859397      -1.17682782
H       13.04511565      -0.97975200      12.59799777       0.09293043      -1.06871568      -0.01513048       0.39764162       2.32499906      -1.43373190
H       13.02401385      -0.18323035      12.20242309       0.11790658      -0.25329416       1.01841250       0.19605479      -2.51618267       1.48812305
H       19.82889381       8.94546390      14.03626591      -0.15186265      -0.60272721       0.28446794       0.16647552       0.37985433       1.11854805
H       20.14097585       9.59015820      14.46251378      -0.35490249       0.38727220       0.55453354      -1.37197909      -0.86612032      -0.20790290
H        7.97609821      11.32835516       8.66822635      -0.19695711       1.25067438       0.44160298      -0.30769981      -0.21174343      -0.15657322
H        8.23062195      12.01729541       8.49502408       0.46883047       0.55425553       0.10848031       0.28579218       0.78542103       0.03862246
H        8.47308988       9.86902812      13.71366092       0.31668455       0.05003182      -0.38454894       0.40031968       0.40631846       0.59484656
H        8.10814934      10.53653723      14.01334301      -0.06893240       0.25220698      -0.17607679      -0.52859721      -1.02006614      -0.49714428
H        0.44163486      22.56116453      16.00120146      -0.10112417       0.75587464       0.42871520       1.86041979      -3.15681053      -2.85163641
H        0.23708914      22.99360892      16.33230776      -0.29207648       0.53416187      -0.43389607      -2.00040460       3.53829507       2.75917653
H       16.34285155      13.66122461       9.69554357      -0.66215466      -0.14529623      -0.77285122      -2.62059636      -0.67271404       1.17028027
H       16.98421659      13.59935892       9.44058968       0.01957869       0.13030932      -0.60150254       2.22675471       0.18336585      -1.23170442
H       12.81543840      11.77233390      12.03630989       0.14112398       1.09512171       0.16335373      -0.08527239       0.66843720       0.69558834
H       12.16101074      11.59846752      12.44957983      -0.45955047      -0.34400342      -0.29735515      -0.89063385       0.45007021      -0.76139269
H        6.53487853       6.27091909      11.40195005      -0.10358537       0.40925128       0.48564638       0.21862732       0.61651130      -1.30388384
H        6.95476065       6.52063871      10.75549969      -0.52388657       0.15194354      -0.00167745       0.30843736      -0.58682022       1.26369841
O       12.00524241       0.91745030      17.06901322      -1.12979978       1.05616296       0.04148465      -0.67928282      -0.38197618       2.96196834
O       11.24653000       0.84014533      18.07762403       0.28981773       0.78914561       1.45769950      -0.07446360      -0.71648153      -2.78528635
O        1.38707050      21.82213163       8.01770008       3.83711524      -1.91627057      -1.50166776      -7.09969415       1.19568471       7.10974592
O       -0.05066415      22.20066935       9.02284055      -2.53647378       1.93915023       3.13924574       6.91432026      -0.37567669      -6.70929960
O        9.67492047      11.52210497      12.01608835       2.37490835      -0.12529372       2.10479998       2.74090412      -0.62290689       5.73172975
O       10.03572400      11.36783337      13.29924726      -1.12006742      -1.30543554      -1.81884923      -2.65920085      -0.30512140      -6.82540772
O       14.75151302      19.91669105      -0.06229817       1.49644416      -0.66830258      -0.01399251       3.89941028      -6.68964711       6.42170117
O       15.34735564      19.02346392       0.82284767       2.85795226      -1.87504344      -1.83915878      -4.27628714       7.88919701      -6.75547812
O       13.36444928      14.11358672      16.44088737      -2.45530868      -1.60554507      -1.12155496      -0.84118720       2.21539560       2.94358008
O       12.61152462      14.81796907      17.20979628      -2.10406207       2.15594561       1.45921660       1.92629494      -1.88503550      -2.65106712
O       10.52341911      21.43560603      21.17995044      -2.65930281      -2.15529632       2.87514467       3.77335694       6.91570670       4.88863982
O       11.07903292      22.36603691      21.99345832       1.78456327      -0.66591997       2.47094847      -3.65550441      -6.96810695      -4.92326121
O        9.67309324       8.81367793      11.75747075       0.52450211       1.87815434      -1.73590011      -1.73384939       3.37273714      -4.06225752
O        9.46923012       9.53169687      10.68003019      -0.81932507      -1.19264762      -2.88333391       1.38030231      -3.16336836       4.89533544
O       17.89270603      17.38426290       5.71443058      -0.72814748      -1.45964060       4.32071911       0.09523060       0.80858327      -7.86668209
O       17.72683375      17.76297406       4.01529502      -0.93947677       3.83038267      -5.03138167       0.86226090      -0.89656929       7.88588991
O        8.89094142       4.79765783      21.85685087      -0.61936017      -0.71350895      -0.26236509      -3.55134983      -7.96576327       0.55118649
O        8.42481995       3.55689516      22.09160537      -3.07856471      -0.83630106      -0.78864390       3.90688208       5.77474775      -0.32295628
O       21.91834321      14.14564723       1.33261691      -2.59914789      -0.73816055       3.73315075       1.89922915       3.16676847      -8.27988507
O       22.57495777      14.76334200      -0.19674325       2.09026049       2.81906291      -4.98007259      -2.64259503      -4.22154731       8.23824017
O       16.89662126       7.70578797       4.07240978      -2.40507971       0.47956447      -0.11494651      -7.34813269       3.57944860      -2.58841960
O       15.62672067       8.10927405       3.93424968       0.66976592       3.09951668       0.10877625       6.69370118      -2.32162059       2.23536532
O        5.19932295      14.35058090      21.82007854      -1.89333819       3.35539145       0.70748001       7.64151133      -1.73073053      -1.95164793
O        6.80727015      13.88640418      21.42212454       4.97571331      -0.90489873      -2.13886159      -8.15481697       1.47247390       1.76593124
O       12.26699153      16.66997306      15.43033399       3.76073081      -3.54920238      -0.53197812      -3.32864920       1.03894220      -1.54942898
O       11.09747876      16.42277994      14.93943002      -1.32318282      -0.34600457      -0.19574044       4.44213907       0.81953855       2.21052473
O       19.03550716       3.85345355      10.78784810      -4.20529512       4.79046544      -1.02567645       2.23920268      -3.07343987       0.28097130
O       19.93711418       2.52711340      11.19509596       0.97294278      -4.17921135       3.00878326      -1.29488503       3.21327495      -0.15866231
O       21.75535909      12.64354923      21.01670150      -4.86398469       0.59626719      -3.62564051       1.92695495      -0.24815104       3.33803085
O       22.50447825      12.43717973      22.48771986       3.06357663       0.30487428       8.64305101      -1.74893670       1.34273880      -2.24173653
O        5.91177864      14.79860231      13.90936694       0.08902004       2.09120866       0.02726735      -0.92972141       0.54747916       4.44250716
O        5.62266122      14.80714397      15.15169754      -4.27883206       1.03441009       0.65934086       0.50299660       0.55119830      -4.44973229
O        5.77507076      22.13535487       0.43283958      -1.67216349       1.06461898       1.04310094      -1.83817510      -1.76584262      15.55877077
O        5.48118063      22.11053597       1.86618516      -0.27261392       0.20662144       0.68620029       3.25693500       0.85076652     -16.63834471
O       18.67343107       7.99285381      11.41920969      -1.19339946       2.29453559      -0.74279235      -1.72853357       2.06021817       0.74657819
O       17.89411172       9.00029052      11.51507702      -1.42342883       3.75011436      -0.41353762       0.88083789      -3.57146769      -0.05148484
O        7.85334462      16.89255287       0.94174381       1.15334433      -1.76332622      -8.39634759      -0.03830632       1.68203118       6.82680039
O        7.86333547      17.12682158       2.64901294       1.17447712       0.49385401       3.00131461       0.26256350      -1.21338766      -6.89448284
O       15.66510836       0.33081079       8.78661185      -5.14168776      -1.21635592       0.12716215     -13.81248676      -4.45946440       0.87117200
O       14.30985696      -0.09350839       8.93958260       2.15352836      -0.34241527       0.46718711      13.10057468       5.41396048      -0.98128843
O       10.10023649      11.55095673      15.99510026      -3.32842996       2.16872511      -3.37426526       1.45201880      -1.19806837      -0.43235842
O       10.78196325      10.52386697      15.68947933       0.85462497      -1.32454239       2.75488418      -2.48378861       1.37508808       1.33182715
O       16.29470091      13.08373072      14.02065802       3.20893640       1.21489972      -1.74687372      -1.35793385       1.51045739       5.51588221
O       15.91042419      13.46798637      15.20298531       2.83048328       2.73033271       0.84108082       1.56274666      -1.65327091      -5.94187599
O       15.15106419       4.09576571      19.19136514      -5.60094413       3.08567113       3.55138288       2.30465516      -0.23370162      -3.38032108
O       16.10827922       3.49984210      17.94302700       3.12343719      -1.66064373      -4.35977958      -2.39447064       1.30710110       3.63521900
O       15.93846734       7.56030138      12.76193315      -1.62854681      -0.68390624      -1.37540413       0.96575900      -2.82085176      -0.96715274
O       16.00641803       6.56839340      11.94109874       0.20725626       0.96131828       0.64467263      -1.31491096       2.38366100       1.42825773
O        7.20000630      14.82542943      17.78429870       0.00943098       1.59855666      -3.71212853     -10.50973263      12.19267564      -9.82974290
O        6.37649451      15.68946375      16.88963943      -0.50229840      -3.59298864       2.68542854      10.80482512     -11.45041604      10.84327158
O       15.94102357       4.66197586      15.72450069       3.09185325       2.37766755      -1.03600580       0.74091703      -0.34890134       1.00135664
O       15.13111866       4.93078904      16.64516179       3.29751119       1.32603389       1.49125137      -0.60850720      -0.77196684      -0.14683559
O       13.88616556       8.95789690      14.90857539       0.68629914      -0.27933903       0.84760548      -3.67835228       6.59847631       4.77977042
O       13.33891758       9.93931668      15.63483159      -2.46051231      -1.09693821       1.60391246       3.28378808      -6.05664683      -4.49583805
O        8.04965336      10.76419647      16.63043005       3.68236672       3.62919449       0.91002890       1.72006469      -4.95038283      -0.93746915
O        8.48768803       9.54390018      16.62276365      -1.27567056      -0.29082907       0.39162613      -1.14394251       4.82411746       1.03437247
O       15.71664604      20.23822529       5.27677987       4.14781936       2.13745403      -2.63055581      -1.98769700      -0.32349747       6.26323015
O       14.48563627      19.93586759       6.36386201      -7.79839413      -1.43090449       3.14242754       2.17178331       0.41334032      -5.85374246
O       21.81967137      17.09904793      21.38641076      -1.93349686       1.23391750       0.30035453       0.95445459      -1.47062419       1.43332352
O       22.34466071      16.75026775      22.47185108      -0.05656285      -0.91147113       2.45463364      -1.32861398      -0.32410445      -1.01481072
O       16.54992684       7.95124428      15.43522981      -1.93160899       4.17385523      -2.39032866       1.39397030       2.06245693      -0.30709443
O       17.73282830       7.69792679      15.67195686       3.39478967       0.90141912       1.66665942      -0.95990356       0.06550050      -0.27357324
O        5.48438562      12.90264632       7.94952796       0.67101081       0.21920066       3.48386246       4.32745222       5.63359062       1.57756477
O        6.05869444      14.06496530       8.22941203      -2.13688817      -0.12555274       0.12455089      -4.05620885      -5.08707076      -2.00627631
O        7.16116261       8.30972557      18.02218699       0.47109466      -1.04477217      -0.23505798      -0.70207830      -0.57156156       7.57554001
O        7.09916166       8.21869591      19.37777533      -1.29546046      -0.35723354       0.22210647       0.76577675      -0.72152200      -7.75846090
O        3.96268161       7.12029928       8.65915935      -0.26494864       0.30264369      -0.19460866      -2.04265205      -2.19154942       2.62080379
O        3.38759827       6.20790638       9.32821755      -0.43414324       0.37810499      -1.81953026       2.65415401       1.31764799      -0.64218883
O       22.45242764      10.05356106      -0.00502013       5.03660646      -0.27977867      -3.29775545      -8.16520598       0.00023925       5.98708295
O       21.01361754      10.03430632       1.12242934      -3.31830772       0.41777307       1.99988598       8.06993475       0.31438748      -6.67912527
O       12.98543790      16.68461440      13.18475730       2.61816844      -4.21144653       0.20400389       4.40982567      -1.02675062       1.37974363
O       14.10804961      16.93502804      13.78080854      -0.00409099      -1.80153600       1.33984932      -4.65992882       0.61397415      -1.06338978
O       10.35347518      12.87923344       7.52649649      -1.56476703      -0.94294045       0.76281694      -2.64656536       0.88171968      -1.78960105
O        9.59904821      13.44274743       6.65345273       0.40477093       4.29594400      -1.63549419       3.87394897      -1.26356324       2.15257060
O        6.42260251       9.05473490       9.18111046       0.30499673       0.31249644       4.20314806      -3.32426330       0.11181691      -2.66476672
O        5.46526427       8.85432695       8.35254295       0.42641722       0.27176558      -2.22784042       2.89339980       0.05717356       2.39486739
O       17.39022070      16.02483762       8.20741459       1.03618260      -4.91789027      -1.13136442      -0.10287275       0.95709884       1.52778367
O       16.75279751      17.23539497       8.97149632      -4.47906241       4.76177432       0.01081737       0.61612707       0.03154942      -1.54472022
O        5.54452304       4.91549839       0.11753463      -0.63001339       0.43379176       1.52401517      -4.55204100      -2.02736975      -6.16644201
O        6.21198880       5.32612662       1.15671347       2.87897893      -2.84431217       1.32365785       3.53306387       2.91296520       7.05411351
O       12.49433138       5.29721211       4.72214761      -2.37993769      -1.54807005      -0.40116301       1.57524273      -2.01287595       3.74834794
O       13.06507594       4.42975863       5.53171900       1.42319279      -4.16276429      -0.59642060      -1.69318992       3.02327755      -3.95130614
O       10.98238316       5.17188241       9.92982122       0.66310663       0.99193901      -1.52854340       1.04986438       4.22456206      -4.56841725
O       11.40750394       5.75421108       8.82186012       2.19089692      -2.60717256      -2.27435782      -1.49688727      -4.64186533       3.74439517
O        6.60127721      12.44441504       9.56190157      -0.15334055      -2.77312800      -2.99675303       0.94119412       0.23049886       2.08375668
O        7.58222774      12.56395969      10.33085565       0.69836940      -3.32540217       0.27433543      -1.35864801       0.26498949      -0.95795025
O        7.73626087      12.03408734       6.13390661       2.39202969       1.37118338       2.57518729      -1.87292918       0.39801508       0.01966194
O        6.75544258      12.35078614       5.41372094       1.85768961       0.37583134      -3.82248592       1.83135707      -0.15819483       0.70652130
O        8.51530095       0.57970717       8.83608054       0.76331091      -0.80253276       5.50574390      -0.41176094       0.07678899      -1.41347071
O        8.53506002       0.59750056       7.24684717       1.44559007       0.11926959      -7.19465434       0.92309813      -0.42422242       0.94545852
O       22.05876066      14.68478082      15.81119674       0.61699059      -0.32959533       0.58305995      -1.13319651      -3.89690657       0.42876711
O       21.85403321      13.51528547      16.30157767      -1.78047417      -1.32896892      -2.17249053       0.98192716       2.69325708      -1.06548064
O       10.72065484      16.02260030       9.01205878      -0.71985636      -0.48161851      -0.20016852       4.44285291      -0.72860092      -0.42867898
O       11.98190335      15.74520334       8.94538268      -1.33220807      -2.30946078       0.64341945      -4.20596853       1.21956222       0.80112928
O       12.66275421      21.67899227       1.39061810      -1.98686567      -1.43133071       0.40502845       2.53500516       0.67787091       6.18685060
O       12.97841455      21.86173673       2.67345338      -0.21919318      -1.58842881       1.24634361      -2.39296245      -0.04535092      -6.73850578
O        9.24357658      -0.04034172      13.72423043       2.57273066      -1.01836988      -0.57262695      -1.45706788       3.06519896       0.03285426
O        8.90386358       1.14383466      13.39716013       1.19490208      -0.01912210       1.07487675       1.37377829      -2.65373186       0.56155822
O       11.85281733       7.70104778      14.86446078      -0.97165201       0.17841568      -1.10774870       2.50457471      -1.67243370       3.56605174
O       12.56254287       7.09218395      15.74768542       0.75059910       0.38651949      -0.71441797      -1.90145023       2.20172378      -3.50777780
200
Lattice="22.43773069742029 0.0 0.0 0.0 22.43773069742029 0.0 0.0 0.0 22.43773069742029" Properties=species:S:1:pos:R:3:momenta:R:3:forces:R:3 connectivity="_JSON [[0, 1, null], [2, 3, null], [4, 5, null], [6, 7, null], [8, 9, null], [10, 11, null], [12, 13, null], [14, 15, null], [16, 17, null], [18, 19, null], [20, 21, null], [22, 23, null], [24, 25, null], [26, 27, null], [28, 29, null], [30, 31, null], [32, 33, null], [34, 35, null], [36, 37, null], [38, 39, null], [40, 41, null], [42, 43, null], [44, 45, null], [46, 47, null], [48, 49, null], [50, 51, null], [52, 53, null], [54, 55, null], [56, 57, null], [58, 59, null], [60, 61, null], [62, 63, null], [64, 65, null], [66, 67, null], [68, 69, null], [70, 71, null], [72, 73, null], [74, 75, null], [76, 77, null], [78, 79, null], [80, 81, null], [82, 83, null], [84, 85, null], [86, 87, null], [88, 89, null], [90, 91, null], [92, 93, null], [94, 95, null], [96, 97, null], [98, 99, null], [100, 101, null], [102, 103, null], [104, 105, null], [106, 107, null], [108, 109, null], [110, 111, null], [112, 113, null], [114, 115, null], [116, 117, null], [118, 119, null], [120, 121, null], [122, 123, null], [124, 125, null], [126, 127, null], [128, 129, null], [130, 131, null], [132, 133, null], [134, 135, null], [136, 137, null], [138, 139, null], [140, 141, null], [142, 143, null], [144, 145, null], [146, 147, null], [148, 149, null], [150, 151, null], [152, 153, null], [154, 155, null], [156, 157, null], [158, 159, null], [160, 161, null], [162, 163, null], [164, 165, null], [166, 167, null], [168, 169, null], [170, 171, null], [172, 173, null], [174, 175, null], [176, 177, null], [178, 179, null], [180, 181, null], [182, 183, null], [184, 185, null], [186, 187, null], [188, 189, null], [190, 191, null], [192, 193, null], [194, 195, null], [196, 197, null], [198, 199, null]]" energy=-113.67007891430211 pbc="T T T"
H        0.30786137       6.27704536      13.72925353       0.10246932      -0.04176399       0.51099363       0.04731674       0.12721801      -0.58477051
H        0.39503446       6.42765566      12.94722790      -0.05226960       0.30291894       0.03336411      -0.08068384      -0.11265336       0.61649930
H       16.80135525       8.38163714      21.49689655      -0.27068193      -0.60706766      -0.28387173      -1.31877511      -0.37160311       0.03330074
H       16.00662515       8.14309092      21.52892740      -0.14545412       0.69698868       0.25932965       1.32337066       0.41699110      -0.06951147
H        5.80277949      15.06552399      10.19176824       0.48503774      -0.14913103      -0.15673205      -0.53133873      -0.93555300       0.14237234
H        5.40253472      14.35896565      10.29372473      -0.12753924      -0.01504539      -0.56861432       0.51655695       0.91013838      -0.09080099
H       17.56497568      22.12975542      13.43050111       0.75646357      -0.04968969       0.28640745       0.74076844       1.09226332       1.50086000
H       17.65804921      22.68176414      14.10687439       0.40402247       0.08038156      -0.48643757      -0.14897067      -0.88113713      -2.02372199
H        5.83564039      11.35967878      12.88602242      -0.05791287       0.05484471      -0.34408189      -0.69988519       0.26680928       0.62496944
H        5.70197430      12.09365346      13.20887274       0.29903247       0.17281706      -0.06867109      -0.01079661      -0.27405456      -0.55553177
H        9.13263613       4.62243941       7.24523266      -0.34709377       0.15442773       0.40097921       0.58708731       2.09135728      -1.63986224
H        9.46375089       5.38211850       6.91997896      -0.49683355      -0.99141494      -0.58293176      -1.30795302      -1.55579081       1.48789592
H        3.57628660      11.54125926      13.02972825       0.39068320       0.42790608       0.35094032       0.12662911       0.84427502       1.55285930
H        3.76701337      12.16467289      13.54539146       0.55975865      -0.02874447       0.29837166      -0.19358754      -0.79715931      -1.41628698
H        7.69089034       3.84602147      14.83749584       0.36039933      -0.34218347       0.04501584       0.01656995       0.46482678      -2.76900287
H        7.92362638       4.12535527      14.02738999       0.30518363       0.65771651       0.10198667      -0.23477512      -0.13561327       2.91798308
H        5.03922175      11.41539344      15.50164257      -0.28333139       0.71476911      -0.54860935       1.58673524      -0.28650788       0.63498810
H        5.66101050      11.95445717      15.76612658       0.54346121      -0.24719366      -0.05996243      -0.78880848      -1.60392261      -0.46166165
H       11.43085917      12.84740962      14.83776637       1.03976449       0.15497151       0.43616531       1.95040094       2.50885562       0.82048742
H       11.80419132      13.66071730      14.91022491      -0.11257123       0.26139886      -0.13056048      -2.12610755      -2.16566273      -0.01466298
H        9.54627829       0.56954648       0.72498198       0.85171234       0.89216790      -0.03615127      -0.17245979       0.13089665      -1.77804966
H        8.86876489       1.04110321       0.61423003       0.55891202      -0.45337379       0.54838051       1.48497567      -0.26927921       1.27884203
H       20.82479524       3.54226071       4.11705226      -0.20232420       0.02484468       1.02941559      -1.42973723       1.24971671      -2.72677734
H       20.54700345       3.69396462       3.22913018       0.55197592       1.02537430       0.29023585       1.16621691      -0.58843609       3.28973834
H       10.46372694       4.38760398      12.09731461       0.13892816      -0.43195524      -0.30694581      -0.75604247       0.97087318      -0.18954979
H        9.74707645       4.84086323      11.96812265       0.26861663       0.12229844      -0.10508602       0.91640255      -1.45589636      -0.03104121
H       13.61289635      19.01895874      11.43425756      -0.86451552       1.59166344      -0.35813493      -0.58132788       1.10586737       0.05825035
H       13.42009497      19.38600885      12.07706663       0.49240236       0.30430436       0.66589083       0.19714918      -1.41704876       0.21579397
H       14.77877736      22.60462790      21.12286572      -1.36179600      -0.67889196       0.02500509      -1.25651874      -1.41877047      -0.50576199
H       14.27836315      22.24623057      20.52147451       2.04503006       0.05664939      -0.52278380       1.35474198       0.51910308       0.89455194
H       22.32229578       7.14733750       0.53315410      -0.10768935      -1.05182990       0.01711398      -2.67818334      -0.65518108       1.44503963
H       21.45822072       7.07125743       0.80354605      -0.51859019       1.38765938       0.64757683       2.40980002       1.64520621      -1.19542977
H       11.21083395      22.31014594      15.50095203       0.25839879       0.67271950       0.43009129       0.66084390       1.09470889      -2.27240153
H       11.30485231      22.11745324      14.65666964      -0.24287895      -0.58574223      -0.02285455      -0.53151828       0.76749429       1.33392260
H       17.26730881       6.35339153      22.79775231      -0.74119579       0.79943852       0.68842683      -2.19569475       0.60810897      -0.24230047
H       16.49486187       6.48041460      22.41467327      -0.56851060      -0.12620873      -0.05118078       1.95384473      -1.33801011      -0.55736647
H        8.32420760      13.61501265      13.32099734      -0.62246295       0.07120781       0.71958543      -1.37099150       0.30027700      -0.30585292
H        7.57270228      13.39390314      13.13404785      -0.62240707      -1.19319229       0.15280915       1.35062587      -0.90747601      -0.19535700
H       16.48874643      10.42683942      15.03979430       0.94142013      -0.28865170       0.45044016       0.53163578      -0.60968327      -0.99515322
H       16.77636196       9.65479003      14.86232378       0.23088753      -0.24989630      -1.26470985       0.31312871       0.65298647       0.27624887
H       10.68566703      13.83050197      11.20088237       0.13169760      -0.50111864      -0.26366384       0.43183099       0.18113952      -2.02437183
H       10.75550193      13.73599672      10.32819257       1.68486311       0.20871112       0.33358430      -0.05152811      -0.17791616       2.24546386
H       12.27191429       7.49482888       5.38510369      -0.49411542      -0.28995427      -0.23253081      -0.82576250       0.47742071      -0.20534841
H       11.81065360       8.10525059       5.20357087       1.40327989      -0.45938162       0.40506255       0.52141634      -0.50157071       0.62985125
H       21.66644004      -0.43170757       2.40080472      -0.56306097      -0.58987375       0.05288737       0.41704408      -0.30799373       0.06940393
H       21.83996142      -0.96419818       2.92434979      -0.62581727      -1.52010976      -0.86805034       0.29126259      -2.05183778      -0.16541849
H       -0.21328556      22.64283586       6.41306892       0.22141281       0.11013672      -0.05243283       1.48997735      -1.34134695      -0.00089575
H        0.59427239      22.32159784       6.49882306       0.07847599      -0.41608868       1.12870165      -1.61692759       1.33390857       0.03446595
H       11.84510907      20.22403354      11.08532647      -0.35605982      -0.47128348       0.65506815       2.14514201      -0.96860076       4.18279794
H       12.24985881      20.04498623      11.91804959       1.13457424       0.36202791       0.50089486      -2.34261200       1.64668493      -3.36610937
H        2.07813420      18.23974737      10.80875713       0.13629345      -0.08867346       0.51372945      -1.29837670       2.85164079      -0.36347779
H        1.73970070      19.04620878      10.75571290      -0.09431478      -0.14122467      -1.13822628       1.48780791      -2.38523329       0.44624187
H       20.81736762      13.44835662      12.20459792       0.21678776      -0.01188528      -0.05567919       1.59905704      -2.05157956      -0.37751518
H       21.22223155      12.68961333      11.91335030       0.15924593       0.09742611       0.11681668      -1.75245293       2.28887384       0.89114499
H       15.42805128       6.01757578      14.12984180      -0.52723334       0.18015024      -0.31748127      -2.01344236      -2.33746508      -3.00907065
H       15.03999182       5.44374233      13.45835402       0.53568802      -0.90630729       0.35947355       0.75556715       1.77396461       4.39148517
H        9.79997211      17.37702594      11.00307263      -0.29823111      -0.18961448      -0.99427706       0.51796610       0.04045120      -2.09107663
H        9.65774135      17.00243223      10.25056290       0.70706324       0.10351803      -0.14959040       1.99380106       0.22942350       0.80695817
H        0.43965044      17.86856987      18.74178526      -0.01741994      -0.54652531      -0.31889106       1.38108522      -2.98759589       0.49653147
H        1.02771669      17.19671967      18.62001959       0.70318183       0.48834614       0.77334656      -1.57609119       2.54251051       0.75707988
H        6.23610928       9.14141631      11.41591673       0.32305715      -0.58025257      -1.28332100       1.98758655      -2.67416201      -0.13554855
H        6.65946349       8.35406281      11.57812197       1.01617148      -0.36455051       0.85069872      -1.99726426       3.21594208       0.30800146
H        0.14475770      14.78516461      11.91215257      -0.14672228       0.07146364      -0.11565350       0.14430235       2.05766571       2.37372754
H        0.08032292      15.30073904      12.67406606      -0.45951320      -0.98226807       0.56100119      -0.05940343      -2.12395145      -2.69825442
H       21.47009878       0.59211131      14.39792165      -0.16711166      -0.29985674       0.46495727       0.50006721       1.17912096      -0.84320250
H       20.92283441       0.13674025      14.59059171       0.53545190      -0.25176971      -0.48664668      -0.84492237      -0.32551644       0.74653670
H       19.60212979      12.93866449      15.14962424       0.03610544       0.18611405      -0.19555304      -2.52136506       1.03431029      -1.77821169
H       18.86520559      13.22128600      14.73493733      -0.53166949       0.09304224       0.38496579       1.96034906      -0.36113645       1.40496608
H       22.24387208      12.86677159       8.15377159       0.03536100      -0.02214808      -0.08796970       0.00227052      -0.72183899      -1.42316450
H       22.23391689      12.90175311       8.86905303       0.18485214      -0.14427902       0.28343524      -0.12119873       0.05328393       0.87675818
H        1.62236852      14.08385032      10.14248149      -0.17466702       0.56620708      -0.84178685       0.45220405       0.37647811       2.23553771
H        1.91966010      14.08861384      10.99571210      -0.56673076      -0.48257472      -0.10687878      -0.42953901       0.37883887      -3.25946475
H       12.79355866      13.13167971      12.90369703      -0.02104348      -0.21644381      -0.62720246       0.77289811       0.66924338      -0.17839787
H       12.98706293      13.84931274      13.23876122       0.41767304      -0.54856328       0.22631659       0.01177689      -1.00652217       0.52812999
H       14.40954311       1.81232453      14.68976907       0.68512834       0.84383679       0.27973781       1.77689285       1.47989452       0.36237762
H       13.81747691       1.51782208      14.50560799      -0.33762555      -0.43819367       0.18637623      -1.55718689      -1.59619775      -1.03218278
H       18.37464744      11.46858482      11.82322800      -0.06067878      -0.44098168      -0.16222519       2.37725043      -2.38846258       0.20633862
H       19.05761199      10.81787399      11.78568247      -0.18458644       0.12112263       0.15843893      -3.31583369       2.72014150       0.43167740
H        3.89997424      14.80022038      14.32796105       0.67543126       0.12563404      -0.10827506      -1.73764773       0.87062610      -1.26288921
H        3.10889382      15.02162468      13.98426200      -0.29596168       0.04541809       0.42798982       2.39475926      -0.57565761       1.60053563
H        0.12239616       7.19455694      15.97793865      -0.85958158       0.72308424       0.21410834      -0.01197045       0.50956948       0.25425593
H       -0.01935494       7.95615816      16.13848099       0.23067882       0.93852790       0.64548436       0.08614148      -1.00427684      -0.47675061
H        7.90322085       8.56257827      21.88853846       0.41549738      -0.11832977       0.07829988      -0.47620527      -0.38129304       0.71242670
H        7.43431352       9.08756661      22.20086172       0.80228596      -0.60194353      -0.15618280       0.60591734      -0.64936645      -0.12290255
H       13.07201693      -1.17027077      12.58258700       0.17378830      -0.52677672       0.00018796       0.31163289       1.40159378      -0.37677075
H       13.04999047      -0.33270543      12.50127720       0.13092296      -0.93243393       1.35995417       0.02417942      -1.38108855       0.47226273
H       19.82365731       8.86942642      14.15169467       0.01197847       0.00382894       0.76703307       0.09775427       1.86558593       1.80733638
H       19.99543735       9.62949429      14.59101867      -0.78107373      -0.12928161       0.39423574      -1.44600640      -2.22128266      -1.01148867
H        7.92413647      11.59970002       8.79128983      -0.11744871       1.08511833       0.55500287       0.52343567       0.59535205       0.31467645
H        8.34403729      12.20609788       8.50559356       0.45032196       0.86640331      -0.06142735      -0.43462832       0.54730248      -0.49670021
H        8.53113655       9.92039716      13.66262993       0.10514850       0.34322864      -0.13583514      -0.92112856       1.02336501       0.43472636
H        8.10017500      10.55743157      13.96455249       0.11248723      -0.07938417      -0.17392443       0.91578806      -1.30241832      -0.31138891
H        0.47883126      22.64432953      16.03612102       0.27752055       0.12451582       0.07082780       0.24208520       0.36280039      -0.17385079
H        0.10511888      23.24549370      16.31201193      -0.70495615       1.36424108       0.06536367      -0.52053355       0.08060779       0.01912362
H       16.14967839      13.60421530       9.54146692      -0.72998726      -0.34918169      -0.64277637       2.76174422      -0.77025154      -0.72888720
H       17.01317606      13.63288275       9.24938687      -0.12110284       0.26298646      -0.84393215      -3.03144012       0.33733914       0.67326812
H       12.80992226      12.02117177      12.12443117      -0.28422978       0.83737195       0.63860442      -2.40818877      -0.97348383       1.29789806
H       12.06906213      11.54685697      12.34618241      -0.20789475       0.04584391      -0.59856045       1.59204226       2.08457687      -1.38741717
H        6.50138741       6.38997224      11.47613762      -0.19710034       0.52048671       0.27225666      -0.16641760       0.38308653      -0.58204061
H        6.83783028       6.51826223      10.78943427      -0.33901361      -0.12233632       0.24158020       0.66771413      -0.30135315       0.45296738
O       11.98585670       0.93081836      17.07431774      -1.46198533       0.80256940       1.16749203      -0.69492789      -0.45489740       2.67673541
O       11.24597578       0.85645047      18.09552898      -0.22857163       1.34614318       0.86689421      -0.15468675      -0.74758451      -2.32580797
O        1.42892336      21.79301937       8.00688959       1.32433880      -1.66467429       0.25283462      -8.57553654       2.04505070       7.91221506
O       -0.07651360      22.23433335       9.05912709      -0.93861543       2.00196813       1.64626952       8.27805071      -1.03031695      -7.65157146
O        9.71365859      11.52167780      12.04752223       2.37851280      -0.21142918       2.05376265       0.86323713      -0.03420444      -0.32858735
O       10.02166495      11.34600441      13.25370892      -1.14106349      -1.21212411      -3.41514549      -1.15502600      -0.92398741      -0.77022137
O       14.77977177      19.90111363      -0.05617752       2.31935849      -1.63453903       0.66831778       0.69756138      -2.72722801       2.38246045
O       15.37701536      19.00468580       0.78301084       1.29911973      -0.40210925      -2.87336931      -1.86228244       4.36687817      -2.39028421
O       13.32457238      14.09185407      16.43122945      -2.84824431      -1.18722466      -0.51930111      -2.00036886       3.52063755       4.10708260
O       12.58152884      14.84645977      17.22226280      -1.58598339       1.36736442       0.08490128       2.90865454      -3.13141306      -4.06594555
O       10.48689506      21.41678054      21.23329439      -2.01308031      -0.39881915       4.16396952       2.62556491       4.70339345       2.88859708
O       11.09634298      22.34550526      22.01954938       0.76031784      -1.94633730       1.23719643      -2.52819776      -4.26734782      -2.37051350
O        9.67459750       8.84746631      11.72138880      -0.13620421       2.78681925      -2.59568747      -1.88021508       2.12596226      -1.92565747
O        9.46000839       9.50848776      10.64525373      -0.59632422      -1.76819233      -1.80542819       1.26885118      -1.80089096       3.01515816
O       17.88228117      17.36622958       5.76269826      -0.37145841      -0.83863900       2.08066397      -0.14084370       1.39248591     -10.78947016
O       17.72041801      17.81520677       3.96024240      -0.11740669       2.90668691      -2.18105759       0.83511157      -1.49916033      10.74884544
O        8.87024250       4.77255294      21.85317713      -1.86889740      -2.87986248      -0.42263126      -2.42744728      -3.83379870      -0.11966436
O        8.38029861       3.55400579      22.07513007      -2.71476695       0.28811157      -1.21441502       1.89772749       1.87942060       0.41964256
O       21.87980337      14.13575348       1.36784205      -1.93399008      -0.21742370       0.66435708       2.80461657       4.22883194     -10.36652995
O       22.59795125      14.79845428      -0.25345895       1.49457045       1.82124016      -2.34564362      -3.48281672      -5.17082162      10.33713994
O       16.84296875       7.71626542       4.06098609      -4.62319461       0.79128541      -0.87163132      -4.18861254       2.24697769      -1.96344628
O       15.64378181       8.15460535       3.93517032       1.44756299       3.01884355      -0.02985508       2.85572545      -0.11235691       1.67464092
O        5.18643195      14.39585011      21.83144153       0.22882090       2.95475914       0.49043402      10.60061843      -2.70404514      -2.81630146
O        6.86407561      13.87590072      21.39166259       2.27452472      -0.69587069      -1.82094923     -11.12330282       2.38927596       2.65838297
O       12.32056771      16.61878281      15.42015847       3.21906966      -2.84686068      -1.13495664      -6.28456098       1.49470099      -2.08289671
O       11.08142545      16.42230228      14.94366245      -0.23338095       0.22477325       0.35499129       7.14681701       1.04627188       2.93888467
O       18.97832034       3.92029190      10.77302723      -3.22413468       3.46063967      -0.53168108       4.87075254      -7.61657929       1.66788481
O       19.94722181       2.46823402      11.24391189       0.00336249      -2.92346305       3.00456774      -4.25206133       7.63151153      -1.51424863
O       21.69309495      12.65118286      20.97393835      -3.36480003       0.23632022      -1.81720664       4.97466685      -0.87421915       9.10614758
O       22.54967365      12.44695899      22.60387686       2.43041833       0.69780609       6.64514342      -4.83907870       1.95535128      -8.11865395
O        5.91188898      14.83308189      13.92056313      -0.24836666       2.56060021       1.32601039      -1.11903041       0.36144652       5.07868685
O        5.55437061      14.82603623      15.15747457      -4.81210982       1.30745520      -0.08545620       0.11589000       0.44863315      -5.53442337
O        5.75344364      22.14482151       0.47725708      -1.35671175       0.25012453       4.19456907       0.96521643      -1.80966055       6.14558636
O        5.48523022      22.11574255       1.84600996       0.92958963       0.26024662      -2.91633928       0.74804205       0.69839693      -7.31151835
O       18.65437388       8.03716284      11.39993073      -1.53400095       3.14578149      -1.52660317      -1.61639169       2.49939796       1.62776045
O       17.87779196       9.05370208      11.50580648      -0.76651630       3.13751972      -0.58670330       0.72292689      -3.94950798      -0.95818291
O        7.86633321      16.86934748       0.83157255       0.93380957      -0.99093848      -5.60397047      -0.02909200       2.55585674      10.62597282
O        7.88219069      17.13030692       2.68041042       1.50273668      -0.00872738       0.85609049       0.46510070      -2.00416554     -10.83281467
O       15.57110837       0.30756224       8.78399458      -7.16826416      -1.89044995      -0.44767463      -3.91826153      -1.33161629      -0.11212643
O       14.36183761      -0.08947867       8.94512621       4.58687342       0.68221559      -0.08301185       3.00365671       2.30961978       0.08425376
O       10.05099356      11.58333709      15.93934666      -2.76925273       1.77243700      -3.79437939       3.34276721      -4.10658291      -0.69977467
O       10.78904806      10.50255560      15.73763845      -0.29020404      -0.86631318       3.51309284      -4.34821041       4.15678253       1.55113536
O       16.34084204      13.10462558      14.00607321       2.55360670       1.52215476      -0.45513898      -1.72744044       1.94196657       6.33694017
O       15.95411193      13.50043317      15.20471744       2.91946564       1.74425694      -0.59753048       1.75451446      -1.81150533      -6.78707368
O       15.07496324       4.13782882      19.23806497      -4.62114402       2.48062744       2.42511026       5.58415103      -2.35043491      -7.23820135
O       16.15222670       3.48151594      17.88744193       2.24168803      -0.56804881      -2.71166961      -5.47720148       3.28050613       7.67769411
O       15.91239137       7.54422117      12.73717756      -1.60868393      -1.13750722      -1.77206253       0.74056168      -0.33696929       1.07254870
O       16.01195820       6.58238022      11.95438524       0.40186469       0.85189668       0.72074484      -1.10419760      -0.25208024      -0.60487514
O        7.17350004      14.86776906      17.71582298      -2.91523693       3.53148410      -4.82171335      -4.23330836       5.14589530      -2.57930323
O        6.38877303      15.61280629      16.94976880       1.52665997      -5.74152950       5.12848522       4.45316471      -4.56889059       3.42822777
O       15.98818102       4.69919109      15.70771118       3.43228863       2.65681260      -0.92111759      -0.53157686       0.12422666       2.30915907
O       15.18180198       4.94884788      16.66916803       3.31064299       1.00212217       1.58807155       0.58129591      -1.25780208      -1.39893389
O       13.89275700       8.96347314      14.92523520       0.24358093       0.83720888       1.24619795      -3.10371671       5.29467450       3.88734107
O       13.31792215       9.91031914      15.65058939      -0.40629666      -2.64727398       0.77539634       2.71101612      -4.66033857      -3.52301089
O        8.09914753      10.81031221      16.64899680       3.17045618       2.17440160       1.17669176       1.61770177      -5.76592498      -1.11270201
O        8.46739628       9.55150326      16.63241820      -1.32053630       1.01499586       1.15815450      -1.08977328       5.97560273       1.05474047
O       15.76780792      20.26537956       5.24999064       2.59917631       1.55015493      -0.81533853      -7.88106024      -2.20518685       8.41450936
O       14.37805037      19.91565549       6.40153291      -5.94045247      -1.03771668       1.40437238       8.01089408       2.48090203      -8.09262964
O       21.79491068      17.11654105      21.39271734      -1.04851167       0.92441687       0.29185449      -2.71392773       4.12885757      -9.33708117
O       22.34144773      16.73397011      22.50609894      -0.36163036      -1.00195874       1.81191149       3.14598484      -2.04408894       8.69511514
O       16.52482543       8.01033544      15.40121741      -1.26760802       3.55658997      -2.24960998       6.13181807      -2.40854545       1.22386890
O       17.78086082       7.70779452      15.69063500       2.37918792       0.56948996       0.91354205      -6.49343882       0.55162278      -0.74906904
O        5.50393340      12.91082257       8.00710827       1.31721312       1.03469648       4.01321873       2.71982856       2.10126442       0.71300353
O        6.01459969      14.05104717       8.22748370      -3.45489722      -1.75990009      -0.34574486      -2.38886326      -1.55796929      -1.61414592
O        7.16689504       8.28912387      18.03490473       0.26339597      -1.61872633       1.80321667      -0.84364246       0.80983077       2.79372976
O        7.08026868       8.21272359      19.37232540      -0.96672826      -0.36592817      -1.08325426       0.68256693      -1.67572853      -2.75733516
O        3.94993458       7.11935444       8.65918101      -1.09622134      -0.55379494       0.20391659      -1.15098989      -0.20726743       1.21412897
O        3.38625826       6.21825837       9.30073700       0.25916138       0.43062029      -2.05747712       1.80948160      -0.59298690       1.36329772
O       22.51328871      10.04873048      -0.04267434       2.63610000      -0.29309718      -1.69584640      -9.15642016       0.03084725       6.34691035
O       20.98102890      10.03929014       1.13919418      -0.94536913       0.23286958      -0.20638140       9.04671449       0.23317892      -7.42845261
O       13.03719725      16.61917972      13.18236535       3.80083976      -4.55054606      -0.21907312       2.20738082      -1.78738930       1.13381216
O       14.10128569      16.91088685      13.79383320      -0.39865573      -1.23191022       0.37614704      -2.54525908       1.38018747      -1.00300441
O       10.31644136      12.86562189       7.53086204      -2.95807702      -0.64022927       0.26829404      -3.05431425       1.27360829      -2.56603210
O        9.62531598      13.50129988       6.63220721       2.54417573       3.36793740      -1.15800987       4.15834843      -1.13898646       2.69727169
O        6.41936728       9.05974881       9.23772969      -0.58122028      -0.04467801       3.01394233      -4.59355250      -0.56019848      -4.50810856
O        5.48341127       8.85262900       8.32717576       1.83001210      -0.18378053      -1.18547595       4.43211628       0.41446862       4.13511921
O       17.40626111      15.95044178       8.19483682       0.71117823      -4.15547070      -0.61029304      -3.06698135       6.31228364       5.17844298
O       16.68491165      17.31236992       8.96832706      -3.97191290       5.25020359      -0.38275588       3.36199132      -5.59452365      -4.97546204
O        5.52980486       4.91815222       0.12867861      -1.68478673       0.12640535       0.08909983      -4.67544097      -2.26573546      -5.16972552
O        6.26558822       5.29272927       1.18832888       4.23764151      -1.63010289       2.83494536       3.59905959       2.74970826       5.64813743
O       12.46098618       5.26545773       4.73273543      -1.56681740      -2.71959697       1.33638119       2.45594923      -2.59218643       4.27675963
O       13.08149027       4.37771446       5.51444661       0.68979147      -2.82588365      -1.64104821      -3.45583380       3.38395794      -4.55033981
O       10.99646647       5.19128730       9.90395046       1.06729176       1.63356668      -2.05033231       0.46886639       3.19570308      -3.95952695
O       11.43671377       5.71084041       8.79247964       1.59445711      -3.17559865      -1.30543014      -0.98844848      -3.28741538       2.82722649
O        6.59566412      12.40645395       9.51519493      -0.10965598      -2.46826284      -2.78354344       2.68924430       0.36745962       3.44897092
O        7.58934469      12.51120878      10.32810004       0.23016383      -3.14032859      -0.41736835      -2.80946264       0.14480408      -2.50786233
O        7.76821278      12.05464781       6.17642368       1.81648731       1.60840421       2.83929948      -4.21949115       1.75254627      -2.47318425
O        6.78951976      12.35917442       5.35909070       2.64280524       0.60208076      -3.03193380       4.09035222       0.54814067       2.80663142
O        8.52703664       0.56525173       8.90841414       0.86294495      -1.24617120       4.00406393      -0.35025691       0.31583519      -9.11470682
O        8.55924971       0.60227569       7.14325060       1.73164411       0.14950523      -6.21063102       0.48340010      -0.55858002       8.47438870
O       22.06962876      14.67539196      15.82216835       0.47934269      -0.91152771       0.84137051      -0.92597924      -2.76432324       0.24476898
O       21.83145385      13.50206103      16.27113977      -0.99113642      -0.51305402      -1.72676645       0.95843153       2.45887235      -0.79328100
O       10.72014349      16.01754508       9.00693647       0.54610909      -0.63027499      -0.40183827       2.54542963      -0.35321875      -0.41883180
O       11.95434731      15.71063087       8.96402867      -2.45498044      -1.88888598       1.41749912      -2.53419158       0.97409847       0.78596354
O       12.63720467      21.65850393       1.40540728      -1.26651600      -1.17340451       1.40569038       1.50275748      -0.00497046       2.90061902
O       12.96695673      21.83968756       2.67793031      -1.13779408      -1.61369100      -0.86012273      -1.50608939       0.05051020      -3.00428008
O        9.27888572      -0.05209072      13.71657369       2.08088697      -0.53430814      -0.61768832      -1.35921882       3.22403640      -0.11693562
O        8.92258813       1.14117208      13.41611378       0.98693901      -0.51629876       1.48234756       1.25379550      -2.75195812       0.65839523
O       11.84177696       7.70022613      14.85748884      -0.65931979      -0.39987707      -0.38090563       2.15054802      -1.38328411       2.89911027
O       12.57193119       7.10045742      15.72636698       0.53555609       0.77805439      -1.93997850      -1.75055602       1.93509820      -2.98435459
200
Lattice="22.43773069742029 0.0 0.0 0.0 22.43773069742029 0.0 0.0 0.0 22.43773069742029" Properties=species:S:1:pos:R:3:momenta:R:3:forces:R:3 connectivity="_JSON [[0, 1, null], [2, 3, null], [4, 5, null], [6, 7, null], [8, 9, null], [10, 11, null], [12, 13, null], [14, 15, null], [16, 17, null], [18, 19, null], [20, 21, null], [22, 23, null], [24, 25, null], [26, 27, null], [28, 29, null], [30, 31, null], [32, 33, null], [34, 35, null], [36, 37, null], [38, 39, null], [40, 41, null], [42, 43, null], [44, 45, null], [46, 47, null], [48, 49, null], [50, 51, null], [52, 53, null], [54, 55, null], [56, 57, null], [58, 59, null], [60, 61, null], [62, 63, null], [64, 65, null], [66, 67, null], [68, 69, null], [70, 71, null], [72, 73, null], [74, 75, null], [76, 77, null], [78, 79, null], [80, 81, null], [82, 83, null], [84, 85, null], [86, 87, null], [88, 89, null], [90, 91, null], [92, 93, null], [94, 95, null], [96, 97, null], [98, 99, null], [100, 101, null], [102, 103, null], [104, 105, null], [106, 107, null], [108, 109, null], [110, 111, null], [112, 113, null], [114, 115, null], [116, 117, null], [118, 119, null], [120, 121, null], [122, 123, null], [124, 125, null], [126, 127, null], [128, 129, null], [130, 131, null], [132, 133, null], [134, 135, null], [136, 137, null], [138, 139, null], [140, 141, null], [142, 143, null], [144, 145, null], [146, 147, null], [148, 149, null], [150, 151, null], [152, 153, null], [154, 155, null], [156, 157, null], [158, 159, null], [160, 161, null], [162, 163, null], [164, 165, null], [166, 167, null], [168, 169, null], [170, 171, null], [172, 173, null], [174, 175, null], [176, 177, null], [178, 179, null], [180, 181, null], [182, 183, null], [184, 185, null], [186, 187, null], [188, 189, null], [190, 191, null], [192, 193, null], [194, 195, null], [196, 197, null], [198, 199, null]]" energy=-132.70166179781705 pbc="T T T"
H        0.31174908       6.26806086      13.80878846       0.03575252      -0.03612096       0.09286530       0.10479633       0.45271885      -1.67478065
H        0.37564408       6.48703106      12.99617671      -0.04471236       0.19567638       0.41319670      -0.15229883      -0.45076313       1.67346721
H       16.71212597       8.19915563      21.42421817      -0.35250540      -0.93768993      -0.27513731       0.18672783      -0.02728288      -0.05494499
H       15.97387495       8.32506823      21.60158844      -0.19692849       0.79131845       0.33131120      -0.18996746       0.03619705       0.03776439
H        5.87901179      15.01602463      10.17260728       0.18416777      -0.26804951      -0.07771976      -0.46080618      -0.56290154      -0.06537495
H        5.38982005      14.37646637      10.16516377      -0.01176740       0.15862327      -0.48791367       0.40713665       0.61328238      -0.04496317
H       17.76406731      22.11435818      13.53282426       0.84487730      -0.20088065       0.35585079       0.34030911      -2.24290609      -1.53662121
H       17.74610574      22.68544258      13.96135859       0.32747741       0.01783273      -0.54977975       0.07703362       1.67855415       0.87407822
H        5.79903915      11.37274733      12.83077236      -0.18500497       0.14163122      -0.12272849      -0.50144168       0.48763732       1.13296233
H        5.76092130      12.12912379      13.16615510       0.31554710       0.08548392      -0.23053410       0.25228761      -0.88025524      -1.00557643
H        9.03824994       4.68420911       7.32117871      -0.52860691       0.18237469       0.26899455      -1.58895021      -1.54543163       0.09171169
H        9.33039195       5.13206318       6.83335862      -0.61882888      -0.99352268      -0.34973885       0.10284724       1.65825265      -0.67643601
H        3.66837978      11.64481643      13.15294561       0.37770886       0.26545502       0.50936772      -0.60981330      -1.96008279      -0.58358784
H        3.91052244      12.16029711      13.57616211       0.65747692       0.06965283       0.08019175       0.89999690       1.52864633       0.45812270
H        7.77382852       3.77269211      14.77046695       0.35739851      -0.16306227      -0.49802995      -0.48046058       0.52971871      -1.54481134
H        7.99281990       4.26244352      14.12400358       0.32458174       0.42262412       0.68160156       0.20050930      -0.79448754       1.55034624
H        5.02081469      11.60028231      15.39527862       0.24745891       0.76811230      -0.33055306       2.48122362      -0.34123038       0.72713849
H        5.76281743      11.86455392      15.74762091       0.30243005      -0.38944272      -0.19475655      -0.96374370       0.93367266      -1.20440537
H       11.71123950      12.92736890      14.96850579       1.16163008       0.39026075       0.57450633       0.81497091      -1.28625714       0.65191543
H       11.73908080      13.68005525      14.88290733      -0.39571901       0.08828679      -0.03539789      -0.70185463       1.11712853       0.25614666
H        9.76629591       0.76442513       0.67798165       1.03671182       0.62438533      -0.40673080       1.62281872      -1.26142536      -1.97634532
H        9.03363640       0.91579223       0.79737144       0.83134958      -0.59047527       0.94790119       0.47289377      -0.36869615       1.83173239
H       20.73121228       3.61515732       4.26858153      -0.44274389       0.60686789       0.24221309       0.29754235       1.97929335      -2.22311654
H       20.70525321       3.90805389       3.39641164       0.72574705       0.69549345       1.13101296       0.23616523      -1.56211529       2.69868904
H       10.48649067       4.30200577      12.02619303       0.21616924      -0.16435052      -0.34304923       0.77161561       1.05086572       0.03884286
H        9.86138741       4.82151847      11.92885996       0.72678948      -0.26269202      -0.18928714       1.03121437      -1.21184070      -0.39689948
H       13.39823016      19.45444715      11.34115823      -0.85305891       1.92270139      -0.21293116       0.73472680       1.58073852       2.83153903
H       13.56028415      19.39856347      12.20528419       0.60806828       0.02211902       0.15176383       0.05648538      -0.17451527      -4.39918417
H       14.42613340      22.42148006      21.17661518      -1.38055301      -0.80765121       0.24263914       1.58947093      -1.00364331      -2.21397109
H       14.80372609      22.24498708      20.34923169       2.28265300       0.07382076      -0.91647415      -0.19407290       1.02177718       2.62156079
H       22.20363384       6.88838165       0.59385570      -1.02517633      -0.91551477       0.50312970      -4.00433775       2.13190401       1.94733323
H       21.42818706       7.43330730       0.90240476       0.39740894       1.40307892       0.16582354       4.59902229      -1.28333794      -1.81322702
H       11.29230218      22.46385358      15.52725463       0.39251908       0.44107366      -0.22491833       0.26707878      -1.01973685      -2.75798734
H       11.25947979      21.98790605      14.74717884      -0.11311428      -0.42627816       0.77142567       0.55376304       0.99598351       2.66346599
H       17.01751445       6.55742262      22.96262645      -1.11819989       0.89938000       0.71163884      -0.51197877       0.39028064       0.42927651
H       16.44400851       6.42638773      22.40414349       0.00156225      -0.32544986      -0.01663542       1.56185345      -0.87666743      -1.03250154
H        8.13090017      13.59080669      13.48941399      -0.93111491      -0.35338604       0.61469903      -1.14445025      -2.07662306       0.12442050
H        7.46711632      13.13558457      13.14610237      -0.16760935      -0.84994614       0.04600424       2.15863761       1.20953211       0.88022150
H       16.73709468      10.30322696      15.12510345       1.03497080      -0.83114844       0.21271936       0.05818504      -2.16644387      -1.17059055
H       16.82875172       9.60506715      14.57795518       0.14868251      -0.07059247      -1.11392275      -0.49516179       2.19827798       0.92408111
H       10.73217598      13.72300516      11.10792383       0.07173726      -0.35528626      -0.44489808      -1.17558608       0.50132243      -0.44216261
H       11.16414153      13.80056225      10.47024896       1.69552420       0.28002084       0.76998202       0.54823180      -0.13580254      -0.04125333
H       12.20886085       7.39544516       5.32834748      -0.05143556      -0.83495302      -0.31663658       1.15310239      -4.21293416       0.15029824
H       12.14277419       8.01771165       5.27970916       1.23319094       0.00190671       0.13485095       0.07409514       3.48314695      -1.02846291
H       21.52148789      -0.59814591       2.42483645      -0.59577406      -0.75919819       0.15186758      -0.07438255      -1.45494556       0.71812464
H       21.72104050      -1.33128930       2.75423916      -0.29128512      -1.39479643      -0.55358372       0.49911360       1.70622473      -0.08132264
H       -0.09099021      22.63963204       6.43010543       0.80538903      -0.19259656       0.19280597       1.37660615      -1.40694363       0.56385707
H        0.56026725      22.25581927       6.76212456      -0.45827358      -0.10822595       0.98949110      -2.29968880       0.78735046      -0.61982264
H       11.79964311      20.10050893      11.34821416      -0.04747676      -0.42836605       1.35737697       0.67531581       0.75019687       1.56694277
H       12.45470726      20.17868092      11.94960365       0.44213671       0.66303772      -0.19863954      -2.49720067      -0.09313916      -2.23563240
H        2.08173695      18.31781214      10.90876595      -0.17112309       0.69389783       0.22963083      -0.78347396       2.17916405      -0.92587239
H        1.72869007      18.93970033      10.47540360       0.11230421      -0.67457007      -1.15754060       0.62967739      -1.86291977      -0.06440854
H       20.88496214      13.40919485      12.14987393       0.44141768      -0.18609806      -0.36512461       1.19240500       0.35357857      -1.20067795
H       21.22877246      12.74500083      11.96956888      -0.00784776       0.23476404       0.18981771      -0.18648120      -0.62233574      -0.07601109
H       15.26244081       5.99805611      13.97711926      -0.65335308      -0.20163197      -0.85422638       0.51984579      -0.62965966      -1.17277396
H       15.25694169       5.25587183      13.58880130       1.19236015      -0.74881668       0.51155557       1.77926387       0.30173747      -0.34972222
H        9.71137246      17.36327612      10.78056978      -0.43168248       0.01188790      -0.69097844      -0.93446818       0.94163130       2.45142177
H        9.85475915      17.03805298      10.20637786       0.86858014       0.09889840      -0.36685289       1.42721105      -0.45513902      -1.93931047
H        0.50127717      17.68956598      18.66666607       0.41855059      -0.79424233      -0.34722666       0.16907546       0.18383452      -0.60828150
H        1.17461539      17.36405007      18.83781582       0.70045157       0.77593103       1.09415288       0.04167111      -0.06605830       1.02676039
H        6.36283025       8.90627890      11.14813100       0.78400485      -1.33535080      -0.81876942       1.99838878      -2.25540389       1.75281150
H        6.83294386       8.36451147      11.72595529       0.48007536       0.38866867       0.39656188      -2.48672096       2.20643107      -1.86640543
H        0.09410901      14.86431111      11.93917631      -0.39597721       0.62342632       0.23349419      -0.82382202       0.77369205       0.07905555
H       -0.02099900      15.00762404      12.72885238      -0.33686021      -1.26486325       0.14029708      -0.12722236       0.08370434      -0.07978627
H       21.47442077       0.54960616      14.47169846       0.17130646      -0.00577306       0.18302289       1.20662510       0.75938652      -0.09814781
H       20.97462372       0.05119252      14.48189075      -0.13704134      -0.45280568      -0.45250187      -1.85332836      -1.27237835       0.56476990
H       19.52239918      12.98312387      15.09422663      -0.54082297       0.13516948      -0.22291186      -0.27758366      -0.55144009       0.17875894
H       18.81278149      13.21568017      14.85380584      -0.04561990      -0.10338447       0.48112680      -0.31939241       0.08894080      -0.99213456
H       22.23532932      12.85720394       8.11389676      -0.07982131       0.00416762      -0.21015634       0.01277212       0.17450344       1.63707535
H       22.29510438      12.87263509       8.94303722       0.18364712      -0.18422652       0.23498753      -1.01311449      -0.12079357      -1.49160573
H        1.60049706      14.21268025      10.04866222      -0.00172720       0.34835885       0.17081835       0.55506305      -1.37275819       3.39850253
H        1.75971431      13.97488926      10.87642280      -0.65522357      -0.39833727      -0.91591519       0.29908602       0.18430566      -2.56552413
H       12.78144142      13.08859582      12.77442102      -0.00219738      -0.11818485      -0.41440674       0.88852668       0.42007351       0.62772583
H       13.08192519      13.66855527      13.27621129       0.37807505      -0.81170091       0.08040448      -0.67379240      -0.53430933      -0.72965292
H       14.54832433       2.02354619      14.76515462       0.08187371       0.61917828       0.30212509      -5.25345821      -3.04334385      -0.58732773
H       13.79323810       1.42095071      14.55472691       0.35540330      -0.16680015       0.41088822       4.07638149       2.93846698       1.65518209
H       18.42473734      11.30788477      11.78803013       0.25922275      -0.71300539      -0.20902420      -1.80655658       1.14224763      -0.42899617
H       18.96388596      10.88700817      11.84099706      -0.35327839       0.27840809       0.24456880       1.72045235      -1.52393682       0.70506362
H        3.97457830      14.82388947      14.28970364      -0.10465256       0.18151112      -0.14693593      -2.13183597       1.12417293       1.15090789
H        3.12436182      14.99186999      14.13055330       0.34112044      -0.35021201       0.66812404       2.23604824      -1.34278905       0.09832504
H       -0.08165356       7.39178997      16.04306640      -0.79016360       0.85691570       0.31243409       0.44930074       0.97825014      -0.43430727
H        0.00897315       8.16295954      16.27274714       0.02169812       0.80492594       0.44585211      -0.50591456      -0.37806117       0.00054218
H        8.03508953       8.50286203      21.91071073       0.70717136      -0.33390483       0.18409614       1.55043738      -1.29935737      -0.45958186
H        7.63805677       8.97163479      22.17260554       0.78116262      -0.34356283      -0.04333239      -1.22937165       1.46720726       0.88328681
H       13.09994608      -1.29974094      12.56993666       0.04611421      -0.58445997       0.03853179      -0.74495464      -0.58002094       0.63866391
H       13.05515245      -0.55034545      12.83329633      -0.10964190      -0.72022088       1.41321282      -1.05240902       0.47685795       0.53134621
H       19.82152373       8.93201138      14.37573046       0.02270836       0.23914455       1.03447043       0.44948842      -1.35925473      -0.47138942
H       19.78520161       9.57979512      14.65184556      -0.92510293      -0.10900172       0.18141912      -0.61769517       2.08825099       0.79772725
H        7.89045993      11.86828248       8.92505879      -0.02601773       1.06738238       0.55266722       1.31252923       0.14726707      -0.45921697
H        8.41810282      12.40331276       8.51751976       0.16788913       0.67007147       0.20042743      -0.66094724      -0.90145565       1.36352903
H        8.54906831       9.99104688      13.64388282       0.07607973       0.17736237      -0.03950373       0.68500973      -1.11477016      -0.18598399
H        8.13332074      10.54317264      13.89303781       0.14379893       0.08418907      -0.36723441      -0.03125769       1.57329438      -0.30110901
H        0.51041707      22.73258392      16.07791853      -0.25656586       0.81564742       0.24796140      -3.49702531       4.74946736       1.08003037
H       -0.02343228      23.54175773      16.32072190      -0.23168653       0.81592222      -0.14378185       3.33172113      -4.40482060      -1.32288232
H       16.08706333      13.52410743       9.35461103       0.13657477      -0.32409680      -0.95908737       1.31597628       0.50134623      -1.22876115
H       16.88087864      13.65423143       9.08658956      -0.90570580      -0.14970007      -0.51118551      -1.39870916      -0.77457833       0.95434400
H       12.65753542      12.19222076      12.28178700      -0.88778191       0.60890202       0.49245528      -1.45875394      -0.68560408      -1.16848364
H       12.10471817      11.60934451      12.18335956       0.35837645       0.40240696      -0.56337164       1.00552094       0.48726178       0.64914438
H        6.46411565       6.50656552      11.55782203      -0.10941917       0.45989009       0.50464340      -0.07089064      -0.27828970       0.93092775
H        6.75740585       6.50090745      10.84954270      -0.38094040       0.03374764       0.21453779      -0.73565133       0.90775895      -0.65798678
O       11.96079027       0.94768459      17.09090024      -1.65380752       0.89602678       1.08280623      -0.29737134       0.29666512      -1.27669418
O       11.24162569       0.86955058      18.10257151      -0.52799263       0.78216625       0.38064882      -0.62728725      -0.89341416       0.07743527
O        1.42885363      21.77414605       8.02979732      -1.31763796      -0.76526770       2.59042302      -8.46263083       2.52255687       8.69244386
O       -0.07828528      22.25907708       9.07114796       0.78026741       1.11277853      -0.21963692       7.50153163      -2.98253612      -6.69183050
O        9.75747306      11.51297082      12.07498683       3.07528918      -0.74466352       1.38588729       0.10924669       0.22302543      -3.94759358
O       10.00664234      11.32574858      13.19860309      -0.83413487      -1.76641346      -3.42235093       0.35618920      -0.98490485       3.30733977
O       14.81648388      19.87261771      -0.04323932       2.45404848      -1.97488353       0.81680907       1.48756835       0.68183985       0.68143116
O       15.39649099      19.00078628       0.73366788       1.47531474      -0.07504081      -3.44256569       0.00822549      -0.64849662       0.32690458
O       13.26668774      14.07263225      16.43065228      -4.75220948      -1.08839800       0.46815663      -5.62733008       3.94670302       4.00585470
O       12.56436789      14.86101332      17.21615511      -0.67765520       0.36671712      -0.58834357       3.64819794      -4.19037661      -3.57043156
O       10.46378255      21.41060099      21.30665637      -1.22371306      -0.58038408       5.35365175       1.19586253       0.59951005       1.69143088
O       11.10302260      22.31408670      22.03125426       0.24029405      -2.21503788       0.14936504      -2.10835136       0.31545843      -0.77054262
O        9.67404175       8.89132547      11.68223860      -0.21929564       3.06286199      -2.71749499      -0.95992014       1.19738480      -1.11388868
O        9.45077195       9.48147693      10.61626839      -0.47959889      -1.86211913      -1.79953716       0.65990026      -0.11856142       1.31642106
O       17.87421397      17.35443683       5.77665023      -0.62607153      -0.75630706      -0.67026436       0.52926917       2.23371337     -11.59214213
O       17.72079253      17.85541094       3.94740435       0.07159343       2.51101884       0.59636509      -1.04581015      -2.72165731      11.07178652
O        8.83350503       4.72630016      21.84559078      -2.85035781      -3.12403043      -0.41179269      -1.66330770      -0.00204342      -0.79576440
O        8.34479730       3.55597562      22.06009899      -1.89598786       0.16133242      -0.74916063       0.78605386       2.09349297       2.36254440
O       21.85468839      14.14457027       1.36138963      -1.44671808       1.41412139      -1.39017874       5.37596185       7.29537580      -8.31107706
O       22.61174811      14.81792630      -0.27212135       0.38756867       0.38495374      -0.29442402      -4.06713602      -5.52655906      10.24413173
O       16.76897154       7.73246626       4.05011982      -4.90951509       1.56247708      -0.79060273       0.02658313      -0.52912581      -0.86307224
O       15.67116773       8.20198250       3.93827831       2.00457679       2.81293165       0.34286075      -1.21222904      -1.11266745       0.74086950
O        5.21006787      14.43952704      21.83585370       3.10957282       2.36629170       0.38810067      10.87761294      -3.07579289      -1.58366642
O        6.87878432      13.87283774      21.36706297      -0.40750238       0.67950316      -1.34316863     -11.18757972       2.87922203       1.07583194
O       12.34929268      16.57455932      15.40093614       0.55733906      -3.19768850      -1.42523257      -8.14195313      -0.53749984      -1.54186622
O       11.08805831      16.42946840      14.94667953       1.29843535       0.61439738      -0.03138925       8.30696577       0.36538710       3.12040600
O       18.93678582       3.95813540      10.76865590      -2.33221656       1.53801803      -0.06722154       4.04914597      -9.77487537       3.37327523
O       19.94133494       2.43510073      11.28070955      -0.90726770      -1.02686871       1.75577669      -4.48448838      10.67829859      -3.57625517
O       21.65503093      12.65913121      20.96586727      -1.83434520       0.56821535       0.79716550       7.12287082      -2.19029416      12.09982690
O       22.57375510      12.46456214      22.68834673       1.29759615       1.22585807       4.02191192      -5.59904725       0.65266789     -11.93357867
O        5.90825466      14.87273830      13.94752814      -0.31811557       2.51232525       1.96745064      -1.47278262       0.32125267       1.39285780
O        5.49092511      14.84743741      15.14151712      -3.82416344       1.22751048      -1.83395648       0.15213393      -0.32604384      -3.52444524
O        5.73618968      22.14492535       0.54697209      -1.08032334      -0.06610777       4.49410440      -0.43054312       0.29730633      -1.35916757
O        5.50409019      22.11960376       1.79509859       1.44166897       0.03597982      -3.18258712      -0.10441327       0.65858958       1.91893703
O       18.63281659       8.08746784      11.37627377      -1.38345049       3.33993434      -1.55089225      -1.52696136       2.50969694      -0.88795323
O       17.86974010       9.09387401      11.49330318      -0.45401781       2.14013461      -0.95008694       1.23605984      -1.79243074       0.86046910
O        7.88030473      16.85787311       0.76693513       1.07748292      -0.64340962      -2.80821532       3.75812800      -0.23819468      10.90259579
O        7.90524238      17.13211790       2.67438913       1.52623293       0.23247030      -1.37049204      -1.36015725      -2.52283769     -11.73001452
O       15.46192169       0.28322522       8.78505662      -6.22605225      -1.35368864       0.27495343       7.34420766       2.66075666       0.26967924
O       14.42770694      -0.07743223       8.94586888       3.54486753       0.75130766      -0.13903756      -7.87153530      -3.49587998      -0.28375164
O       10.01178235      11.60282527      15.87869076      -1.84443030       0.90542962      -4.01042010       4.27215356      -5.81648239      -1.20804469
O       10.77767251      10.50216594      15.79377884      -1.50085078       0.44328690       3.57137576      -3.93670906       5.77444436       0.93534662
O       16.37671031      13.13021615      14.00804694       2.05956165       1.72852593       0.54728615      -2.54345307       0.95601157       3.81460505
O       16.00291217      13.52591239      15.18428567       3.07297109       1.91637657      -2.05760754       0.84697955       0.02864288      -3.35929488
O       15.04706749       4.15423640      19.22894890       0.99105337      -0.53569874      -4.00948521      22.81549541     -15.83944824     -28.90867377
O       16.14410663       3.50508263      17.89405857      -3.66412832       3.79894143       4.22903844     -24.63075010      16.85738759      30.14787535
O       15.88985572       7.52534686      12.71258046      -1.19706203      -1.24212654      -1.57936165      -0.36786742       2.56768748       2.91180359
O       16.02191847       6.59718848      11.96574241       0.76392838       1.00860350       0.42219673       0.14282589      -1.43792625      -3.14336373
O        7.12493472      14.92253061      17.63760214      -2.91599229       3.38611370      -4.89385620       5.17897559      -3.29386861       5.41950935
O        6.41064436      15.51934977      17.03146072       1.10039003      -5.97096368       5.34039884      -4.31090506       3.89496764      -5.11260285
O       16.03957871       4.74287606      15.69765788       3.25793557       3.25151743      -0.40748766      -1.19395568       1.29076479       4.49590589
O       15.24048045       4.96245556      16.68502011       4.68505236       0.70649127       0.40004671       1.87104942      -1.13987747      -4.71080215
O       13.88685835       8.99084649      14.95298308      -0.92481245       2.67583291       2.02612770      -2.32992120       3.23489405       1.45979627
O       13.31394090       9.85425077      15.65315982      -0.46992541      -4.29692934      -0.32204974       0.79461691      -2.46937391      -1.21602618
O        8.15597063      10.83445983      16.67166551       4.27441114       1.18882072       1.23674754       3.17252713      -3.47150896      -0.16629201
O        8.44152540       9.57367302      16.64856926      -2.01963993       1.79490574       1.16931597      -2.69264009       4.62393971       1.17118054
O       15.78809388      20.28076269       5.25539987      -0.05703398       0.46841429       1.57968412      -8.94322399      -2.54453932       6.84473911
O       14.31016931      19.90482006       6.40714455      -3.09980207      -0.59002166      -0.55364726       8.94188976       3.15645723      -7.05025487
O       21.77526435      17.13819328      21.37940079      -1.59774743       1.71722290      -1.76521544      -3.14670292       1.01933223      -7.59418197
O       22.34391094      16.71183952      22.54714047       0.42300809      -1.77786697       3.71648102       3.20992086      -0.77696016       7.96440977
O       16.51577053       8.06029773      15.37446787       0.30713363       2.93947849      -1.01417635       8.92891853      -2.94586833       4.05353646
O       17.80316115       7.71614088      15.70143983       0.44112069       1.08630417       0.40349565      -9.69623463       2.93349300      -3.63406460
O        5.52871737      12.92691301       8.07110035       1.26242991       0.81030862       4.06559994      -1.25920103      -3.76258093       0.34493296
O        5.96345950      14.01821905       8.22239371      -2.88695156      -2.28254836      -0.22757435       2.18843521       2.55393943       0.08354687
O        7.16749494       8.26016317      18.06284359      -0.14282683      -1.97688297       1.75182151       0.55567188      -0.91424397      -0.18925836
O        7.06485910       8.20806690      19.34485425      -1.13462977      -0.10431548      -2.26778893      -1.24896287       0.23047743       0.05351794
O        3.93310194       7.11427088       8.66108218      -0.90547317       0.19157486      -0.18331935      -0.24771234       2.75810701      -1.60584849
O        3.39558291       6.21908390       9.26844545       0.86727204      -0.22904520      -2.21623128      -0.69264685      -3.18385253       1.75614854
O       22.53618116      10.04413856      -0.05538217       0.24744562      -0.36189939      -0.02324466     -11.40915638       0.69707113       7.35716224
O       20.98779469      10.04202125       1.12293674       1.95500823       0.33802164      -1.78572773      11.50166488      -1.60620770      -4.68489206
O       13.09176465      16.55253014      13.18085111       3.59567448      -4.44902246      -0.20885437      -0.35553470       0.05339443      -1.54028206
O       14.09007849      16.89857393      13.79498140      -0.86899473      -0.63687981       0.03616118       0.50456410       0.35349308      -0.18905545
O       10.27031065      12.86008175       7.53227585      -3.06230299       0.03117634      -0.16484312      -1.55957091       0.64755474      -2.00568025
O        9.66400669      13.54877987       6.62225662       2.68156402       3.01259545      -0.35508905       0.72779639      -0.86645122       2.06313215
O        6.40513735       9.05535024       9.27533472      -1.45922543      -0.20791648       1.75498324      -5.64058260      -2.08697227      -4.54441430
O        5.52233528       8.85813764       8.31650595       3.40132681       0.78936244      -0.13300246       5.17531145       2.27699040       4.27092439
O       17.40681783      15.89732340       8.19915211      -0.49122876      -2.63358740       0.92283434      -4.74728150       8.95299085       3.99886043
O       16.63025213      17.37717874       8.95624413      -2.80383893       3.19907218      -1.15347438       5.02501163      -9.33473604      -4.63234400
O        5.48947781       4.91956395       0.11692671      -3.29322711       0.05391494      -1.06753863      -3.10704352      -0.68782555      -1.38212814
O        6.33856837       5.27358471       1.24448561       4.93378551      -0.67513239       4.29048836       2.12755875       1.59451729       2.72933118
O       12.44790996       5.21505502       4.76407517      -0.16164894      -4.03601214       2.92869450       1.86237670      -3.53868199       4.36966253
O       13.08510804       4.33422357       5.47062976      -0.17934116      -2.58135445      -3.53932168      -3.49344304       3.96157698      -4.31458989
O       11.01322065       5.21755317       9.86866163       1.29566532       1.73294953      -2.59870027       0.00234875       1.84880508      -1.67298569
O       11.45938752       5.65803444       8.78090153       1.18991565      -3.54406737      -0.06893397      -1.65525574      -1.86769447       0.55897254
O        6.60152529      12.37146815       9.48259214       0.59302843      -1.73322004      -1.54650415       1.79167930       0.97972406       2.22527605
O        7.58419633      12.46760698      10.31375476      -0.89896857      -3.05111360      -1.23874475      -3.57013941      -1.24056652      -3.79322924
O        7.78895965      12.08529202       6.21482711       0.58356890       2.19255582       1.88562601      -4.84613912       1.62391712      -5.00363950
O        6.83810054      12.37051933       5.32052207       3.87111256       0.50172585      -2.09477690       5.65598885      -1.42985030       4.21041739
O        8.54068225       0.54411511       8.94211513       0.97844190      -1.57275454       0.45670097       1.00110319       1.24984381     -12.19732704
O        8.58177228       0.60314121       7.07025089       1.32956302      -0.13176606      -3.31372467      -0.02906231       1.09181525      12.44398479
O       22.07166297      14.65248626      15.83473450      -0.02891221      -1.97428918       0.72583470       0.43020238      -1.44120241       0.02242897
O       21.81630178      13.50178978      16.23887952      -1.10274083       0.04617497      -2.26453596      -0.92621206       1.09332941      -0.37765161
O       10.73443371      16.00986941       9.00477322       0.94541385      -0.26858268       0.24171055       0.11966925       0.34567357       0.38246994
O       11.91444526      15.68153835       8.98452571      -2.57260510      -2.15231570       1.47083302       0.97851351       0.15509630       0.96894116
O       12.62007591      21.64200135       1.43270484      -1.37622070      -1.15370848       2.09644272      -0.63125310      -0.37151387       0.42047334
O       12.95155340      21.81620991       2.65732833      -0.84216675      -1.30577032      -1.60133080      -0.44539641      -0.28483899      -0.95313106
O        9.30751196      -0.05230907      13.70747004       1.77103878       0.52647285      -0.35079036      -0.50953975       3.01697223      -0.61335281
O        8.93483140       1.12919709      13.44366590       0.49831558      -1.06418231       2.18166598       0.19766697      -1.88179812       0.98925422
O       11.83324493       7.69065124      14.85415359      -0.44220439      -0.87292248       0.25537732       1.15951795      -0.62644796       1.85483240
O       12.57447607       7.11055434      15.69245533      -0.25914290       1.00433508      -2.50686697      -1.34824296       1.46865075      -2.27080512
200
Lattice="22.43773069742029 0.0 0.0 0.0 22.43773069742029 0.0 0.0 0.0 22.43773069742029" Properties=species:S:1:pos:R:3:momenta:R:3:forces:R:3 connectivity="_JSON [[0, 1, null], [2, 3, null], [4, 5, null], [6, 7, null], [8, 9, null], [10, 11, null], [12, 13, null], [14, 15, null], [16, 17, null], [18, 19, null], [20, 21, null], [22, 23, null], [24, 25, null], [26, 27, null], [28, 29, null], [30, 31, null], [32, 33, null], [34, 35, null], [36, 37, null], [38, 39, null], [40, 41, null], [42, 43, null], [44, 45, null], [46, 47, null], [48, 49, null], [50, 51, null], [52, 53, null], [54, 55, null], [56, 57, null], [58, 59, null], [60, 61, null], [62, 63, null], [64, 65, null], [66, 67, null], [68, 69, null], [70, 71, null], [72, 73, null], [74, 75, null], [76, 77, null], [78, 79, null], [80, 81, null], [82, 83, null], [84, 85, null], [86, 87, null], [88, 89, null], [90, 91, null], [92, 93, null], [94, 95, null], [96, 97, null], [98, 99, null], [100, 101, null], [102, 103, null], [104, 105, null], [106, 107, null], [108, 109, null], [110, 111, null], [112, 113, null], [114, 115, null], [116, 117, null], [118, 119, null], [120, 121, null], [122, 123, null], [124, 125, null], [126, 127, null], [128, 129, null], [130, 131, null], [132, 133, null], [134, 135, null], [136, 137, null], [138, 139, null], [140, 141, null], [142, 143, null], [144, 145, null], [146, 147, null], [148, 149, null], [150, 151, null], [152, 153, null], [154, 155, null], [156, 157, null], [158, 159, null], [160, 161, null], [162, 163, null], [164, 165, null], [166, 167, null], [168, 169, null], [170, 171, null], [172, 173, null], [174, 175, null], [176, 177, null], [178, 179, null], [180, 181, null], [182, 183, null], [184, 185, null], [186, 187, null], [188, 189, null], [190, 191, null], [192, 193, null], [194, 195, null], [196, 197, null], [198, 199, null]]" energy=-108.04833236919167 pbc="T T T"
H        0.30959584       6.26576653      13.80540095      -0.02713102       0.06096549      -0.05206146      -0.07849162      -0.32484802       0.90673064
H        0.36371289       6.51959746      13.11208411      -0.00577514       0.10938517       0.46746267       0.06709816       0.33042791      -0.89617643
H       16.58330037       7.97236709      21.37093237      -0.80096944      -0.75243705      -0.19694255      -2.37259079       2.11215142       1.17488707
H       15.94857217       8.53543570      21.69251050       0.14132536       0.79761663       0.36664969       2.36930271      -2.09837442      -1.21419107
H        5.91992947      14.92552524      10.15282448       0.19122267      -0.38561301      -0.05008721       0.87264973       0.80266015       0.14618350
H        5.37889795      14.44357199      10.05270847      -0.15396564       0.23747186      -0.42140099      -0.89780631      -0.75203168      -0.14104259
H       17.96489147      21.99172550      13.58718788       0.84955283      -0.66329226       0.08031721       0.06632853      -0.24439153      -0.03768971
H       17.82286955      22.74430072      13.84570991       0.29133427       0.27575513      -0.49809175       0.36484073      -0.51435564      -0.25124959
H        5.73895447      11.39567373      12.84345717      -0.36526177      -0.05779838       0.19330768      -0.46990979      -0.37043175       0.56874654
H        5.84128335      12.12819876      13.08016108       0.33002140      -0.01961261      -0.55438037       0.03918270       0.16782119      -0.52630370
H        8.86431943       4.66794843       7.38464255      -0.82318576      -0.30147491       0.28385916      -0.85779012      -0.62065290      -0.64528273
H        9.18139636       4.95210986       6.72112133      -0.66252735      -0.52191173      -0.49777930      -0.44831035       0.54646302       0.55002139
H        3.73094241      11.63397586      13.25381384       0.27735341      -0.26267193       0.45446013      -0.25692074      -0.96448560       0.33247566
H        4.08253472      12.22058614      13.60185111       0.75366429       0.45758785       0.03085768       0.45807824       0.93243482      -0.09198784
H        7.85689140       3.72140490      14.63087124       0.25462550      -0.35084525      -0.57433049      -1.30481968      -1.37487705       0.37249749
H        8.08284615       4.34709018      14.32902298       0.51281718       0.34724792       0.99580564       1.17379993       0.80202371       0.17416876
H        5.14100958      11.75938581      15.32173808       0.64880923       0.62330588      -0.29765370       0.45306204      -0.69368795       0.12555668
H        5.80506392      11.79794120      15.68937279       0.21891309      -0.20919738      -0.27439247       0.64141209       0.81421215       0.21067500
H       12.00723340      12.99475157      15.12974202       1.16719208       0.26945705       0.70227997      -0.41376609       1.58785673       0.01454153
H       11.63586525      13.74743152      14.88250079      -0.37803544       0.29068215       0.12590837       0.22798034      -1.51999597       1.22405535
H       10.04418481       0.87278027       0.54672872       1.09584896       0.13728092      -0.57389428      -1.95153330      -2.31220040       0.29061051
H        9.28846066       0.74114827       1.06654593       1.41882095      -0.67634719       1.07249480       4.10476132       0.56739590      -1.11385959
H       20.63380021       3.80843447       4.31947674      -0.42007728       0.90903921       0.36856000      -0.27888607       0.96585777       2.87210162
H       20.88782354       4.02732534       3.69325875       0.70333240       0.36506353       1.00935681       0.38955346      -0.21870268      -1.97256583
H       10.60424324       4.28073266      11.94706399       0.80758015      -0.07135001      -0.25010988       2.28956336      -0.45885652       0.64247836
H       10.04197154       4.73416132      11.87099171       0.67979924      -0.40419414      -0.31350166      -0.57477007       0.02242824      -0.64927028
H       13.24313818      19.93471037      11.39054592      -0.31177018       1.80555236       0.72762819       2.53192987      -2.18842860       4.31457257
H       13.67316963      19.43356472      12.07212132       0.36309016       0.35418462      -1.25874662      -1.84377995       1.20352659      -4.45375338
H       14.22707357      22.19238845      21.06545784       0.19411715      -0.98858042      -1.34396706      10.09578095       0.01318068      -7.37656834
H       15.26201018      22.25789310      20.30370317       1.03689604       0.01291083       0.71864443      -9.26629705      -0.70912902       7.40393118
H       21.84876114       6.79215874       0.75891995      -1.67641940       0.14711082       0.84792170      -1.23648351       4.04219279       0.72554317
H       21.65635344       7.71292946       0.90384214       1.34342133       0.74980748      -0.14169477       1.06187237      -3.04529407      -0.56385988
H       11.39960501      22.51742000      15.42327632       0.46161016       0.11825148      -0.42157915      -0.03973113       1.40578069       0.50290883
H       11.27742327      21.88434723      14.98815302       0.18551233      -0.44863812       1.05746600       0.76878374      -0.35172541       0.76099861
H       16.74175970       6.78330542      23.13113103      -1.16172595       0.82427697       0.63159045      -1.42368783      -1.39988473      -2.07909355
H       16.50743824       6.33453749      22.38474623       0.46431917      -0.40056151      -0.04345595       1.97069484       0.56069655       1.21076663
H        7.89781844      13.46204057      13.65816225      -1.00939338      -0.71982287       0.83577486       0.26934731      -1.31845915       0.98720266
H        7.49506868      12.93842110      13.17820334       0.25836557      -0.82210252       0.22137094       0.80370119       0.23350759       0.33015943
H       16.97731091      10.02790977      15.12728471       1.00664503      -1.42769024      -0.12869248      -0.32482962      -1.31906215      -1.20071606
H       16.86510925       9.65084476      14.36359796       0.14840671       0.41015524      -0.66609056       0.28001092       1.28656813       1.49088544
H       10.74300626      13.65591639      10.97571465       0.12718218      -0.17581822      -0.64945582       1.77080863       1.03859747      -1.31891874
H       11.56425391      13.84978489      10.64454428       1.59854293       0.06077985       0.72055357      -2.34284355      -1.10407219       1.43324557
H       12.21820411       7.12651327       5.26823380       0.12430685      -1.01914943      -0.23706548       1.21352665       3.12701094       0.36417524
H       12.45178084       8.04157492       5.29064967       1.23527441      -0.17240546      -0.09020883      -1.10352032      -5.32119044      -0.77693167
H       21.37522756      -0.83463131       2.49818185      -0.55649018      -1.22715504       0.41337294       0.02540848      -1.64072990       0.72091723
H       21.67420399      -1.59984699       2.62198382      -0.13601012      -0.76851984      -0.47575967       0.11563353       2.32046886       0.54016303
H        0.10042891      22.57917835       6.45823877       0.71165869      -0.18070208      -0.03761072      -0.44828077       0.27765668      -1.10598964
H        0.39473350      22.23504449       6.98085625      -0.70297008      -0.09166851       1.02091496      -0.38307759      -1.13301318       1.69270707
H       11.78067050      20.01346235      11.67528654      -0.13920476      -0.29392785       1.25515248      -1.01440679       0.75196452       0.08355946
H       12.50416087      20.34510092      11.86167609       0.03376206       0.67180139      -0.48369052      -1.07095489      -0.18738702      -0.27197021
H        2.01315386      18.51715110      10.95270755      -0.38550620       0.94970398       0.07075606      -1.32264312       1.14277019      -1.23594780
H        1.75926632      18.74282909      10.18825772       0.19819610      -0.81936181      -1.12893985       0.49353674      -1.30837763       1.25212691
H       21.00862821      13.41184618      12.03325713       0.53500052       0.23220490      -0.62141734       1.31264234       2.36069162      -1.41759896
H       21.24214707      12.76810537      11.98719223       0.19976993      -0.18148192      -0.05648104       1.46115636      -2.56462362      -0.62866645
H       15.12314165       5.90706692      13.75220939      -0.34614799      -0.52860814      -0.97608724       2.66472039      -2.81878194      -0.57495060
H       15.60108382       5.10203035      13.69482570       1.41492042      -0.44472569       0.30981604      -0.24658324       2.18371840      -0.40379447
H        9.58604794      17.37881540      10.64619089      -0.42947402       0.00198321      -0.42424302       1.25843424      -1.41242933      -0.91919676
H       10.09979929      17.06432534      10.06600852       0.99114310       0.21694282      -0.54690560      -0.58625338       1.47976689       1.94113666
H        0.61391744      17.50303552      18.55155990       0.66167784      -0.69697975      -0.36227086       3.24551050       0.30752263       1.80489247
H        1.33714117      17.55307888      19.12123795       0.48531088       0.77700399       1.15796728      -2.99606979      -0.10394621      -1.28343270
H        6.60408816       8.55239212      10.98523096       1.08669735      -1.53291332      -0.57095760       0.86424986      -0.28816195       0.93337250
H        6.89704864       8.48068922      11.77807275       0.24768143       0.56626905       0.05457731      -1.16125126       0.09081985      -1.27227647
H        0.00233901      15.03846377      11.98292743      -0.29397317       0.77348295       0.14314648      -0.83501563      -0.35433673       1.44513369
H       -0.10197961      14.69105486      12.77621193      -0.37436093      -1.13979887       0.13118299       0.13332981       1.24325355      -1.65847153
H       21.50730612       0.54765184      14.52669172       0.01299357      -0.18150393       0.16823704      -1.84166033      -2.42814984      -0.84052776
H       20.90951977      -0.08176026      14.36932709      -0.14340909      -0.37240326      -0.38227362       1.40108749       2.17507350       0.92518671
H       19.41951219      13.00009475      15.03687241      -0.15318224      -0.15665250      -0.28418760       2.10796920      -1.15020214       0.48029220
H       18.76770358      13.19737970      14.92065152      -0.42843734       0.03229612       0.06819129      -2.48787643       0.72840203      -1.34831258
H       22.22759970      12.88628180       8.14320639      -0.01126797       0.30593566       0.31831705       0.64858892       0.32712706       0.33532952
H       22.31925223      12.85228427       8.93966209      -0.03911738      -0.01951506      -0.21068921      -0.89579476       0.10335002      -1.20976711
H        1.61562751      14.26446465      10.14212508       0.03931063       0.23832081       0.38891739      -0.15517619       1.57269619      -1.86243569
H        1.64418542      13.86438324      10.64708269      -0.26237421      -0.58905569      -0.77642815       1.05531909      -2.48421457       2.16072498
H       12.82261459      13.05979390      12.68825019       0.31118451      -0.16383326      -0.36035886       0.49045407      -0.58260798      -0.35661041
H       13.15363228      13.47861281      13.25339420       0.22899199      -0.68963358      -0.19605120      -0.21207218       0.28423706      -0.19914552
H       14.42643296       2.08682336      14.83521272      -0.83126237      -0.07113543       0.32925665      -1.15720821      -0.09212595       0.22447347
H       13.95364760       1.45429166      14.69774326       0.78158122       0.37118401       0.68118162       0.35250483       0.24266454       0.41460181
H       18.40190854      11.17984070      11.74380885      -0.51801596      -0.35103880      -0.27369527      -2.27367786       1.03651722      -1.27354117
H       18.97479342      10.88424294      11.93656378       0.43392320      -0.23116508       0.54994358       2.11569613      -1.00102316       1.16231411
H        3.92536371      14.87955374      14.29818307       0.01795083       0.23912124       0.28702157       3.05684996       0.13964276       1.44333968
H        3.23396115      14.88370230      14.28941673       0.32387772      -0.49659989       0.54745498      -2.94888421      -0.79000690      -0.92168358
H       -0.27251652       7.62004847      16.11493717      -0.71705440       1.07362227       0.30244407       0.62305929       0.57823764      -0.52806574
H       -0.00037289       8.34026749      16.36620553      -0.03659201       0.57432267       0.45075339      -0.67628671      -0.61303324      -0.05238189
H        8.25912279       8.40120607      21.94250070       0.95618190      -0.53049189       0.13720548       0.54488930      -0.24054393      -0.00681492
H        7.79703488       8.90411920      22.17671870       0.55140326      -0.35134499       0.04072339      -0.49176671       0.62698979       0.11749225
H       13.09288251      -1.44901886      12.60094705      -0.13043613      -0.48843781       0.37576743      -0.86588218       2.40357374       2.31498738
H       12.99704724      -0.71890338      13.15305455      -0.30348975      -0.76845880       1.11724858      -0.05719246      -1.92130372      -2.17909205
H       19.85499362       8.92933757      14.61684382       0.22917433      -0.26368307       0.88015424      -0.22144656      -0.09889898      -0.20292988
H       19.54765638       9.60856030      14.72634124      -1.11507251       0.37010322       0.42845886       0.17174432       0.59116407       0.23235467
H        7.90150412      12.12532010       9.04025666       0.11478063       1.10762076       0.44645619       1.22362890       1.14959975       0.42362197
H        8.45003576      12.54524089       8.60948862       0.10220342       0.48276678       0.54700122      -0.76491384      -1.70269311       0.74865672
H        8.58585262      10.00622847      13.64506320       0.21254822      -0.05514792      -0.03732176       0.54027504      -1.26154322      -0.06389155
H        8.17861067      10.59670978      13.79943347       0.19613222       0.33775105      -0.47106693      -0.21760922       1.63587384      -0.42844770
H        0.37569256      23.04229588      16.17870207      -0.72158009       1.49103618       0.39540215       1.31812949      -0.62787349      -0.27083219
H        0.01664116      23.66147232      16.25785636       0.21532912       0.31474330      -0.27645403      -1.23221631       1.47810294      -0.62405076
H       16.06877069      13.44264548       9.11976910      -0.33456221      -0.38425967      -0.80294598      -3.26653490      -1.40369862       1.29478726
H       16.66641951      13.59694272       8.98366182      -0.57735446      -0.16667567      -0.46779466       3.28679694       1.30135305      -1.26310686
H       12.41513813      12.38358195      12.36038187      -1.01565686       0.93779999       0.13022327      -0.72124460       0.45787585      -0.88765171
H       12.21545994      11.71039450      12.06980301       0.51834579       0.36290617      -0.36885765       0.13218026      -0.39188929       0.36300809
H        6.44201204       6.59133644      11.69540821       0.00231274       0.31206330       0.55515604       0.80752581      -0.34253075      -0.49117027
H        6.62612048       6.56690535      10.88815551      -0.72714849       0.43856922       0.22029091      -0.97785344       1.12073743       0.92982543
O       11.93585052       0.96552541      17.10260050      -1.49482828       1.24476665       0.13374020       1.04964215       0.10581490      -2.98759479
O       11.23078175       0.87744588      18.10514019      -0.92182040       0.12859045       0.36312653      -1.34131296      -1.22139562       1.54626589
O        1.38794752      21.76753833       8.08940601      -3.78330094       0.13649318       4.83947951      -8.84465051       3.29467506       6.73356119
O       -0.05151573      22.26663762       9.05325993       2.70595889       0.29168512      -1.93718062       5.21886059      -2.45131231      -5.51575555
O        9.80672229      11.50356487      12.07899810       3.17720144      -0.31386379      -1.18118791      -1.75621609       0.87114314      -7.31718469
O        9.99352239      11.29198592      13.15873577      -0.90146516      -2.60823344      -1.71609145       0.10070534      -1.78438152       7.69048256
O       14.86591797      19.85065435      -0.03443527       3.26872470      -1.11537395       0.59734786      -0.50903058       3.16836276      -1.83642007
O       15.42109078      18.99875144       0.68556766       1.50495721      -0.39604372      -2.80917992       1.47593945      -2.90321824       2.04647008
O       13.18158423      14.06403349      16.44363012      -5.97755650      -0.01550571       1.61674667      -2.72380097       2.30711365       2.14408793
O       12.55938825      14.86157958      17.19924618      -0.22109256      -0.08331065      -1.55574115       1.84117932      -1.07763804      -0.34029027
O       10.43953481      21.40065947      21.38186349      -1.93814497      -0.69184345       4.71560256       0.07459350      -1.84636219      -0.18004781
O       11.10532276      22.28181305      22.02667802      -0.04890931      -1.58940800      -0.35192778      -0.66510231       3.24426454       0.91724849
O        9.67281094       8.94291360      11.63934084       0.02911251       3.34559275      -2.60305332      -0.26463717      -0.42038024       1.52521502
O        9.44550391       9.46034492      10.58477642      -0.42686325      -1.36177928      -2.29988365       0.03377313       1.12829805      -1.85689441
O       17.86114759      17.34756745       5.74603568      -0.85071058      -0.16792854      -3.52639192      -3.03396976       3.92259261     -11.01892328
O       17.72103311      17.88579219       3.97568592       0.02825834       1.69835706       2.79964424       2.57020147      -4.72517435      11.13218447
O        8.79087774       4.67635270      21.84198570      -2.58592072      -3.30976255      -0.11971520       1.81039047       5.92275269       2.08151552
O        8.31214737       3.56341691      22.05546199      -2.14920038       0.40565704       0.31372745      -1.02181628      -3.28368315       1.03255499
O       21.83746822      14.17668084       1.33006039      -0.70139484       2.55631247      -2.65259189       2.25463717       5.08901004     -12.01330373
O       22.61027683      14.81433432      -0.25855359      -0.63944810      -0.67630781       2.09020339      -2.99539083      -5.91864877      10.55610552
O       16.69777229       7.75380230       4.03683280      -3.95614589       1.06595630      -0.98960339       7.63292717      -2.78157443       1.23437639
O       15.69295845       8.24205718       3.94106715       0.72440012       2.41344310       0.06352796      -7.86683601       2.52209373      -3.12195171
O        5.27787245      14.46889733      21.84251935       5.49018018       1.55974410       0.36860808       7.12818562      -2.69380937      -1.07956562
O        6.85194796      13.88727868      21.34497646      -2.81493470       1.02268754      -1.16144124      -6.88707683       1.99275190       2.58378276
O       12.34274566      16.52206617      15.37306342      -1.31834148      -3.27531090      -1.71282894      -6.43196045      -0.94645115      -0.60406675
O       11.12242753      16.43991213      14.95493384       2.96114665       0.76866421       0.73049523       6.33261659       1.68459656       0.89169598
O       18.91123113       3.96022560      10.77176843      -1.09934384      -1.02987290       0.55110162       3.60436818      -9.70852275       3.42816432
O       19.92287755       2.44264573      11.29835557      -1.89914827       2.21177433       0.58271636      -6.26221864      12.17644150      -1.00044786
O       21.64095990      12.66233289      21.00153814       0.00170688      -0.32034248       3.83834848       6.29544563      -0.78337540      11.04640365
O       22.58223710      12.48630301      22.71985673      -0.18482536       1.55786828       0.64754241      -5.90928025       2.44095925     -11.01513644
O        5.89911440      14.91541991      13.97518813      -0.82277612       2.81425202       1.54675376      -0.02923438      -0.29155941      -1.52355121
O        5.43016679      14.86663622      15.10736677      -4.08398268       1.49193609      -2.37384902      -0.84312912      -0.22674387       0.32103329
O        5.72072009      22.14885015       0.60544722      -1.13210646       0.51819887       2.99640786       0.67485061       0.46802910      -7.25070306
O        5.52687624      22.12690993       1.76039869       1.39438862       0.65396823      -1.34205271      -1.01189902       0.64853831       8.20468580
O       18.60697290       8.13872846      11.34682873      -2.17212351       3.26177727      -2.12140504      -0.18496188       0.84847353      -1.08023460
O       17.85954915       9.12642948      11.47939192      -0.89533029       2.37599911      -0.83810857       0.01011185      -0.05319812       1.37915851
O        7.90694596      16.85083987       0.74743402       2.12345503      -0.33267239       0.33931861       2.58409123       0.15660897       9.86904589
O        7.92421326      17.12526131       2.63124160       1.06277963      -0.78245444      -4.44957567      -0.63283788      -3.19004560     -11.51013492
O       15.38515620       0.27255629       8.78988068      -3.30029715      -0.28735154       0.11261945      14.93251893       5.46753933      -2.05485063
O       14.46756480      -0.07321290       8.94670879       0.87096159      -0.31924927       0.14270005     -15.70519143      -6.28640849       2.10897603
O        9.98856462      11.60753225      15.81342940      -0.83532874      -0.09689192      -4.55653806       3.26197862      -4.27936780      -0.48371419
O       10.74525998      10.51535512      15.85007981      -2.54585502       1.52302555       3.58431986      -2.96180257       4.49381367       0.33680117
O       16.40628236      13.16452526      14.02505473       1.91710495       2.43325795       1.18603665      -1.04802239      -0.42206842      -0.14769009
O       16.05029812      13.55927138      15.14621328       3.00424736       2.11806103      -2.55251687      -0.03830605       1.41494474       0.73024412
O       15.10160227       4.11620969      19.12261689       5.67494652      -3.97917002      -9.04232165      11.36203667      -8.62421126     -13.73837372
O       16.04667862       3.58937839      18.00701607      -8.67940317       6.92692513       9.57666863     -12.47529355       8.76891214      15.32778930
O       15.87107876       7.51449560      12.69755666      -1.46224819      -0.16531296      -0.50685982      -0.45327783       3.95263531       1.05828453
O       16.03425453       6.60927140      11.96770150       0.70051413       0.51703755      -0.35589918       0.34188730      -3.36609758      -1.61598723
O        7.09399651      14.96400313      17.57683742      -1.08397794       2.07251085      -2.83978295      13.42820865      -8.41416226       9.85231876
O        6.41496501      15.43724174      17.09667278      -0.77980454      -4.22876412       2.94740331     -13.28572558       9.37426018     -11.31472019
O       16.08677814       4.79279711      15.69910180       3.05352017       3.23794966       0.51186708      -0.22300633       0.29363829       2.68906552
O       15.31513809       4.97101751      16.68489588       4.71127184       0.24249244      -0.33165413       0.70800047      -0.84023690      -2.15375325
O       13.87320670       9.03172871      14.98336137      -0.70760283       2.39530482       1.87678698       1.80677347      -1.41292057      -2.67414251
O       13.30503382       9.78538901      15.64799681      -0.59154194      -4.31480055      -0.26334882      -2.55675840       1.99643732       3.60538884
O        8.22568899      10.85005648      16.69505917       4.68786462       0.76720876       1.45824162       2.08819812      -1.23334397       0.11023336
O        8.40869807       9.60658012      16.67413366      -1.83542795       2.30624478       2.02211457      -2.25834301       0.14727278       1.07459013
O       15.77382573      20.27952546       5.29050954      -2.11100797      -0.41660271       2.95796240      -9.47907519      -1.51351627       7.17211986
O       14.27993977      19.90518402       6.38335234      -0.84738894       0.61619158      -2.23529239       9.39091580       2.37303730      -6.80286723
O       21.75117500      17.17388059      21.33925442      -1.91526441       2.46214893      -3.05454103      -0.79480182      -0.37797533      -2.04336091
O       22.35984418      16.69006961      22.62158144       1.45199271      -1.13751577       5.46737578       0.79424351       0.49206206       3.43105146
O       16.53174818       8.09723003      15.36728566       1.82991020       2.06953526       0.10621418       7.21966644      -2.96425119       1.39292424
O       17.78663156       7.73789139      15.70056824      -2.05543591       1.56122123      -0.70407748      -7.23107482       2.31195333      -2.45810705
O        5.54707147      12.93013091       8.13596614       1.42724510      -0.29188868       4.31142268      -3.26565446      -7.64593234       1.03044260
O        5.92688893      13.99088454       8.21981013      -1.72829554      -0.93777003      -0.21165887       3.18358256       7.67746373      -1.26238053
O        7.16215053       8.22385534      18.08641673      -0.32383286      -2.75768130       1.27609379      -0.10839533      -0.97498642      -2.79924482
O        7.04490975       8.20450616      19.30808999      -1.16159862      -0.59393182      -2.17339654       0.15334895      -1.03840698       3.68299529
O        3.91793152       7.12077114       8.65745599      -1.22987168       0.63328644      -0.51215559       1.62960603       1.05793985      -2.15657135
O        3.41123924       6.20860812       9.23361753       1.25221029      -0.71561400      -1.94898115      -1.56365520      -1.58996409       1.37866892
O       22.51962273      10.03897762      -0.04556631      -2.29061954      -0.10723263       1.35801819     -10.26918432       1.55797027       6.38146215
O       21.03405027      10.03906786       1.08591086       4.23547732      -0.78558510      -3.13253333       9.72202763      -2.46332859      -6.87538442
O       13.14517778      16.48329238      13.17856301       3.56377158      -4.87288348      -0.18115664      -3.00296520      -0.25214560      -2.57642430
O       14.08483981      16.88468390      13.79933697       0.19951621      -1.11050873       0.79528977       4.02093166      -0.97315683       4.99297849
O       10.21948775      12.85330124       7.52719546      -3.68124105      -0.35191405      -0.34796397      -1.09491942       1.70585137      -3.06858448
O        9.71282588      13.59140286       6.61989736       3.35134512       2.52706012      -0.06904180       0.35235631      -1.00029897       1.41172317
O        6.38081205       9.04926448       9.29564036      -1.72352306      -0.52357210       1.04054766      -0.69388987      -1.11786667       0.74523948
O        5.58959687       8.87469266       8.32041693       5.23948252       1.20759809       0.16655283       0.39168274       0.84343385      -0.62863352
O       17.39425293      15.87322113       8.22280237      -1.26920872      -0.48433501       2.44037403      -5.52048179       8.59106813       4.87384686
O       16.59739155      17.40711037       8.92922750      -1.46518003       0.72968056      -2.41673215       6.04051583      -8.53932683      -3.58458846
O        5.43825691       4.92568564       0.09650006      -3.17189677       0.81954266      -1.29373227       1.14317356       0.64099710       3.38812517
O        6.41391880       5.26649866       1.31594351       4.92514084      -0.57443583       4.42899098      -1.38466483       0.08463560      -2.57071258
O       12.44467993       5.14571625       4.81603928      -0.69886581      -4.88218116       3.96507026      -1.52790655      -0.12847939       0.97813794
O       13.07854243       4.30061213       5.40716663      -0.60856066      -1.69735856      -4.47727867       0.16945384       0.31714147      -0.86566437
O       11.02607607       5.24715457       9.82889604       0.52920055       2.30378337      -2.29164128      -1.33776322       0.47498750       2.60750873
O       11.47347482       5.60268981       8.77649978       1.05039253      -3.40065871      -0.52834157      -0.17082755      -0.32848939      -3.13615554
O        6.61345533      12.34616432       9.46019984       0.77810754      -1.52589026      -1.60203063      -0.28588356       1.63062775       1.22556486
O        7.56603540      12.42155443      10.28713183      -1.42383351      -3.14336226      -1.74747865      -0.73532706      -1.95941767      -1.79065052
O        7.78518750      12.11771719       6.23187248      -0.65000673       2.02227290       0.80299609      -3.10446249       0.79822392      -2.43899273
O        6.89890186      12.37280079       5.29904637       4.04652540       0.08804656      -1.21445126       3.70010263      -0.73669999       3.20341303
O        8.55810161       0.52105534       8.92550369       1.05174604      -1.29429810      -2.78978793       0.03501436       0.67753182     -10.84204447
O        8.59993096       0.60122692       7.04454202       1.00602407      -0.09062756      -0.20524625       0.06845921       0.99086014      11.40620188
O       22.07504690      14.62284582      15.84404588       0.52007137      -1.53789762       0.56638627       0.09288499       2.03658749      -0.53042647
O       21.79966238      13.50151883      16.20270493      -0.76510701      -0.45402892      -2.52180321      -0.03280112      -1.93950780       0.26859192
O       10.74038532      16.00583739       9.01219666      -0.19022075      -0.52392369       0.62559679      -3.26584188       0.32242491      -0.21572046
O       11.87810840      15.65608209       9.00881549      -2.15781476      -1.40972420       1.64109787       3.48893795      -2.54079657       0.54936643
O       12.59630796      21.62708483       1.46793499      -1.66924060      -0.94068657       2.44870352      -1.16539133      -0.28194434      -2.80376571
O       12.93809011      21.79669147       2.63281582      -0.98947042      -1.64157500      -1.72544533       0.86110434       0.56750657       3.01723472
O        9.33133777      -0.04718091      13.70538625       1.23548004       0.16362747      -0.25774835       0.30545530       1.04584575       0.27029404
O        8.94257871       1.11158609      13.48519812       0.28747630      -1.16457301       2.75426657      -0.36586158       0.21346991       1.13644693
O       11.83657726       7.68031862      14.86293751       0.47486507      -0.69317773       0.98736551      -0.91347203       1.04423273      -0.74375705
O       12.56957300       7.12755403      15.65509298      -0.05755272       0.80020133      -2.56716654       1.13973472      -0.27280090       0.49887780
200
Lattice="22.43773069742029 0.0 0.0 0.0 22.43773069742029 0.0 0.0 0.0 22.43773069742029" Properties=species:S:1:pos:R:3:momenta:R:3:forces:R:3 connectivity="_JSON [[0, 1, null], [2, 3, null], [4, 5, null], [6, 7, null], [8, 9, null], [10, 11, null], [12, 13, null], [14, 15, null], [16, 17, null], [18, 19, null], [20, 21, null], [22, 23, null], [24, 25, null], [26, 27, null], [28, 29, null], [30, 31, null], [32, 33, null], [34, 35, null], [36, 37, null], [38, 39, null], [40, 41, null], [42, 43, null], [44, 45, null], [46, 47, null], [48, 49, null], [50, 51, null], [52, 53, null], [54, 55, null], [56, 57, null], [58, 59, null], [60, 61, null], [62, 63, null], [64, 65, null], [66, 67, null], [68, 69, null], [70, 71, null], [72, 73, null], [74, 75, null], [76, 77, null], [78, 79, null], [80, 81, null], [82, 83, null], [84, 85, null], [86, 87, null], [88, 89, null], [90, 91, null], [92, 93, null], [94, 95, null], [96, 97, null], [98, 99, null], [100, 101, null], [102, 103, null], [104, 105, null], [106, 107, null], [108, 109, null], [110, 111, null], [112, 113, null], [114, 115, null], [116, 117, null], [118, 119, null], [120, 121, null], [122, 123, null], [124, 125, null], [126, 127, null], [128, 129, null], [130, 131, null], [132, 133, null], [134, 135, null], [136, 137, null], [138, 139, null], [140, 141, null], [142, 143, null], [144, 145, null], [146, 147, null], [148, 149, null], [150, 151, null], [152, 153, null], [154, 155, null], [156, 157, null], [158, 159, null], [160, 161, null], [162, 163, null], [164, 165, null], [166, 167, null], [168, 169, null], [170, 171, null], [172, 173, null], [174, 175, null], [176, 177, null], [178, 179, null], [180, 181, null], [182, 183, null], [184, 185, null], [186, 187, null], [188, 189, null], [190, 191, null], [192, 193, null], [194, 195, null], [196, 197, null], [198, 199, null]]" energy=-117.81895011585212 pbc="T T T"
H        0.29020935       6.26111092      13.82401852      -0.17589635      -0.13660382       0.29006318      -0.25486029      -0.82614697       1.94980375
H        0.37328447       6.53038604      13.18845430       0.06238672       0.04571680       0.08870937       0.25596740       0.82614978      -1.95617629
H       16.31972252       7.88078006      21.39239194      -1.27466514      -0.02332106       0.25301040      -0.92032745       2.61710586       0.99118741
H       16.04750603       8.66474035      21.71603365       0.50375600       0.23119728      -0.11571235       0.87138483      -2.52789278      -1.08170341
H        6.01727617      14.85487932      10.13277322       0.44519946      -0.21277684      -0.14120201      -0.66218367      -0.27051590      -0.16543220
H        5.30950875      14.50453333       9.97034207      -0.40363600       0.24473274      -0.27192655       0.64931221       0.38424409       0.17805760
H       18.16552438      21.85982927      13.61205885       0.70651435      -0.30283923       0.14505690      -1.13106397       2.73021348       0.38675276
H       17.93265802      22.74522466      13.71274881       0.70664007      -0.41123302      -0.52553657       1.06769204      -3.10443916      -0.42498920
H        5.62928244      11.38367326      12.90817752      -0.55391452      -0.00209788       0.27508351      -0.59856220       0.22416808       0.00709859
H        5.91598035      12.13795617      12.93596297       0.30769695       0.05018011      -0.61471908      -0.64353827       0.03488741       0.21837959
H        8.67368627       4.60689091       7.42268843      -0.68855129      -0.15255478      -0.01412915       0.69192015      -0.42120803      -2.33285716
H        9.00592756       4.82846100       6.63760736      -0.90837920      -0.56954814      -0.03263889      -0.70865946      -0.16045791       2.71196565
H        3.80030142      11.55180419      13.37594814       0.29904017      -0.16075345       0.75272695       0.72071934       3.00312713       0.89807573
H        4.25805122      12.30988322      13.58522967       0.56487080       0.22109953      -0.11989823      -1.04176929      -3.01479339       0.31628433
H        7.87972996       3.59810095      14.48930233       0.04286784      -0.39527974      -0.58702212       2.22875600       2.92130232       1.08535198
H        8.23468936       4.41108458      14.57816592       0.67347609       0.03465378       1.03288583      -1.22580508      -1.61832245      -0.15919975
H        5.28736409      11.88512088      15.25466324       0.61493129       0.61901191      -0.34338693      -0.65762518       1.25393713      -0.24763157
H        5.89569302      11.76899683      15.64499641       0.54940492       0.02342043      -0.15610237       1.63323115      -0.71925055       0.79522376
H       12.24006670      13.13542563      15.30383848       0.63179107       0.98204622       0.60140079      -3.06948106       4.15375185      -1.40404301
H       11.57720580      13.73555974      14.93838133       0.03397454      -0.38738196       0.42407062       3.21045465      -4.05481880       1.96123795
H       10.24810923       0.81792696       0.46931977       0.68133886      -0.61660807       0.00581934      -0.23927634      -3.98483561       3.23350839
H        9.74497709       0.62552508       1.24233875       2.16179709      -0.25211543       0.27713566       2.02360998       2.13383876      -3.51956391
H       20.51123252       4.07642900       4.46230536      -0.55518170       1.34443385       0.76328495       1.08529259       0.96271992       0.66553853
H       21.04893686       4.08367604       3.87413907       0.63799721       0.19333979       0.62043221      -0.30160239       1.04346746      -0.47146150
H       10.86391012       4.24984669      11.90064733       1.26377824      -0.05094091      -0.15819797      -0.59392695       0.82919919      -0.42311394
H       10.17108873       4.62610017      11.79614755       0.48835192      -0.47772258      -0.31705366       1.43681440       0.33987149       0.04669839
H       13.23247421      20.30157880      11.63117391       0.25030926       1.11567160       1.19947695       1.61980990      -3.49358075       1.09664667
H       13.73645170      19.57690760      11.64767735       0.10724577       0.68144777      -1.92423555      -2.12912375       1.78801639       0.90639936
H       14.51362213      21.95931988      20.61013302       1.92662792      -0.89734772      -2.12829800       2.02379497       0.19585739      -0.74077582
H       15.28402264      22.23177949      20.63026073      -0.51982521      -0.21238618       1.53756025      -1.58582279      -0.48631442      -0.08951552
H       21.43633406       6.94839101       0.99561369      -1.42948211       1.07513057       0.90586777       2.81682995       4.63976206       0.47378331
H       21.94313591       7.80485770       0.86843780       1.02180934      -0.11882009      -0.01907826      -3.21310659      -5.81759292       0.58137769
H       11.51337793      22.57617427      15.31656039       0.47009877       0.18710438      -0.45211992      -0.35735876      -1.87332477       0.61165622
H       11.35124966      21.75415158      15.26144823       0.40613488      -0.49107271       1.26121175       0.37571239       2.44687427       0.18418593
H       16.45395158       6.92704238      23.17520457      -1.17597093       0.24650037      -0.29461664       0.22693007      -2.89031369      -4.02651231
H       16.66697229       6.28363242      22.44554142       0.81586608       0.13371173       0.59334102      -0.32219815       3.72750783       4.36782643
H        7.65344191      13.25743448      13.87984431      -0.99518521      -0.90898676       0.91565881       0.18613831      -0.52271437      -0.32530687
H        7.57822838      12.73862154      13.23307007       0.44203824      -0.78802876       0.24664904       0.08374340       0.58013338       0.17587776
H       17.19772352       9.65710087      15.07494748       0.77800239      -1.56225729      -0.44035934      -0.82044230      -0.85015263      -1.78091346
H       16.93894261       9.75550823      14.25469519       0.40540694       0.47152162      -0.19259448       0.94167638       0.75615427       2.67239025
H       10.87136315      13.65832865      10.77300650       0.99501913       0.18349917      -0.85985296       5.72126203       1.48576550       0.85392636
H       11.83089838      13.80793379      10.83916423       0.57245831      -0.29979858       0.79692607      -5.39232938       0.11761073      -0.29237467
H       12.27269417       6.98218485       5.23674350       0.38715586      -0.09651450      -0.00774047      -0.33678038       3.69249826       0.09131788
H       12.67988367       7.81012307       5.23992241       0.75732621      -1.60321787      -0.30834976      -1.69957389      -2.79004862       0.25369930
H       21.23493890      -1.15172611       2.62441058      -0.57949860      -1.21423630       0.61005047      -0.54521338       1.80935748       0.45170951
H       21.66085758      -1.73117594       2.52706954       0.09075944      -0.50262508      -0.30900849       1.85144723      -1.01663363       0.03087459
H        0.25346990      22.55506022       6.46638309       0.63939828      -0.16280129       0.21504623       1.77431940      -0.34489711       0.35966574
H        0.22208855      22.18412380       7.25314524      -0.73237058      -0.21707404       1.00527752       0.52522228       1.44139644      -2.90590532
H       11.73973691      19.94415579      11.96387645      -0.07562093      -0.11783168       1.07695404       2.02460693       2.17421911      -0.19547002
H       12.44563888      20.46567383      11.75065403      -0.54163868       0.24260198      -0.35994318      -2.27633841      -2.96224573       1.24390057
H        1.88685685      18.77369867      10.89220754      -0.59404672       0.98201505      -0.72402305       1.49505991      -0.97713938      -4.37004311
H        1.82506799      18.50452117       9.96685223       0.33322062      -0.97293696      -0.46736242       0.99963720       2.69814131       5.23804594
H       21.19536511      13.53575618      11.82151518       1.01403472       0.56797028      -1.03233201       0.37625999      -2.36065572      -0.03436628
H       21.32887994      12.68179531      11.96281990       0.37080601      -0.26056392      -0.03115781      -0.29512967       2.56306005       0.70225067
H       15.14786408       5.69764395      13.52443225       0.61813999      -1.20131071      -0.89598321       4.42608391      -3.46127931       0.35949195
H       15.88456889       5.06580585      13.72198221       0.76448392       0.18156926      -0.02567365      -4.55948859       3.60909943      -0.72310321
H        9.55009873      17.33750118      10.49026221       0.16114741      -0.31515834      -0.88249302       2.02537696      -1.22417925      -0.77308411
H       10.28577796      17.15737573      10.02565431       0.45087412       0.49486764       0.08871106      -2.69357320       0.78689425      -0.23482349
H        0.89581158      17.37512272      18.56761664       1.48226625      -0.34087602       0.50820359       2.16146800       0.79030276       2.94279790
H        1.36429238      17.71661293      19.31664664      -0.23089299       0.48994574       0.43175335      -2.51232297      -1.54933369      -3.20510998
H        6.87838352       8.17006725      10.86930420       1.18632209      -1.50079726      -0.20507974      -0.07999424       2.96408750       3.21874957
H        6.90118946       8.59630879      11.74532669      -0.13121716       0.29647428      -0.43870425      -0.01615830      -2.55853115      -3.51304791
H       -0.10372591      15.20918813      12.08999234      -0.58271162       0.50493189       0.84372538       0.37203212      -3.65319579       2.93966606
H       -0.17169505      14.48684407      12.72747991      -0.17597254      -0.35849316      -0.58459810      -0.32774989       3.51449661      -3.78087379
H       21.45595710       0.43371346      14.54569232      -0.38444773      -0.67711481       0.01181760      -0.58462737      -1.18875475       0.36916262
H       20.92873631      -0.11415754      14.29461024       0.21121257       0.01554843      -0.18410040       1.17177041      -0.10250167      -1.16055831
H       19.41243037      12.95476396      14.98616595      -0.09083829      -0.16018978      -0.17962575      -2.22808072       0.90098786       0.04017873
H       18.63173738      13.22231219      14.92736433      -0.51900557      -0.00394417      -0.01951536       1.52364489      -1.97358641       0.01382472
H       22.24307553      12.96135477       8.17910504       0.04610345       0.34834890      -0.02883034      -0.83071347       0.45748406      -1.96367986
H       22.30620303      12.85323850       8.88646359      -0.17209640      -0.06072477      -0.12240374       0.26103762      -0.67518682       1.23539407
H        1.63819573      14.37045885      10.19691320       0.08435478       0.55657869       0.22588072      -0.00234835      -0.76927668      -0.74996026
H        1.62990346      13.64232412      10.49032843       0.04379363      -1.08379125      -0.49443902      -0.37134502       0.17211561       0.48605643
H       12.91356780      13.00149349      12.58548791       0.43684132      -0.19942116      -0.53616236       0.45657903      -0.38903083      -0.83805394
H       13.19421492      13.35011255      13.22153594       0.09535762      -0.44542352      -0.11464468       0.01148059       1.29815404       0.30800083
H       14.22222705       2.12552471      14.93184780      -0.79417293       0.51505228       0.42692071       1.26964821       3.70277687      -0.62898953
H       14.09571432       1.49552467      14.88517421       0.38793510      -0.15915181       0.84527463      -1.00301088      -2.86490147      -0.13459080
H       18.27081206      11.08856131      11.66413412      -0.30792749      -0.50504293      -0.17856349       3.99035246      -0.59138186       2.35803079
H       19.09446279      10.82180409      12.07835604       0.21385837      -0.16418773       0.42719184      -3.21186160       0.72740420      -3.02176140
H        4.01301740      14.92855205      14.42665945       0.59200928       0.16536493       0.75903122       0.64860236      -1.65272962       1.70762649
H        3.22121003      14.73961041      14.39030434      -0.32883384      -0.57309413       0.31317089      -0.51603236       1.53858430      -1.06912625
H       -0.44055367       7.89097353      16.16403676      -0.60307364       1.08056305       0.11908830       0.98749940       0.65838762      -0.32936991
H       -0.00978957       8.47684596      16.47765110      -0.03596764       0.52736332       0.52083032      -1.18475170       0.30889791      -0.82057291
H        8.51654238       8.27823992      21.99553249       1.03248831      -0.41018909       0.28396680      -0.28272819       0.97121832       1.07116127
H        7.93190795       8.80731242      22.19162129       0.56892146      -0.45563805       0.01504164       0.18228252      -2.06157064       0.31696653
H       13.05043083      -1.50245010      12.78236278      -0.20083784      -0.01403545       0.99114699      -0.19094668       0.22543967       1.00108997
H       12.94609059      -0.93121228      13.35219233      -0.16750065      -0.92948360       0.55391939       0.63690996       0.29702154      -1.29803228
H       19.88435103       8.93038196      14.83759400      -0.12986292       0.35916851       0.84147199      -1.92720029       3.65242882       0.04818842
H       19.30401070       9.66868947      14.83020139      -0.78658320      -0.11965138       0.35113202       2.16756171      -3.46758925      -0.68845362
H        7.94072830      12.42321739       9.16924609       0.18574549       1.25821949       0.68405061      -0.55245037      -1.21307375       1.85537248
H        8.48544841      12.63058838       8.73662593       0.24077618       0.36889208       0.50135710       1.21326972       0.59563532      -1.45867789
H        8.65553155       9.96925984      13.64889476       0.25365453      -0.14373760       0.06293181      -1.47801866       1.87547641      -1.05112584
H        8.25001370      10.71301508      13.67393144       0.43933015       0.50484652      -0.60243369       1.26994533      -1.56845836       0.94277958
H        0.26699435      23.32249714      16.27288847      -0.07209755       0.59732148       0.41218844       2.08844812      -4.70984264       1.75054343
H        0.00359662      23.83247319      16.18140871      -0.43680862       1.28974324      -0.35287713      -3.66359271       3.85734575      -0.51241373
H       15.90623426      13.30349269       8.94747795      -0.92526625      -0.76872110      -0.62797731      -0.02920499      -0.55748256       0.89002242
H       16.61687745      13.61124386       8.86302907      -0.07827412       0.23262958      -0.55005373      -0.76107223      -0.19857004      -0.17892262
H       12.15981288      12.58580179      12.34597943      -1.15544877       0.60952607      -0.32510944       0.68898075      -1.18950842      -0.90296337
H       12.35963934      11.82767507      12.02705947       0.58862216       0.62606946      -0.07278494      -0.37848205       0.88666209       0.79192643
H        6.45871701       6.66388705      11.81192757       0.11198123       0.25989324       0.44271046      -0.58222237      -0.06278750      -1.18412899
H        6.44019284       6.71924694      10.99073358      -0.73390702       0.70434463       0.65485117       0.78895575      -0.56273366       1.38065705
O       11.90982184       0.98359157      17.09459312      -2.06838961       1.07056795      -0.85525460       0.98017104      -0.80034269      -0.36889284
O       11.21803242       0.87724001      18.11219902      -0.85796145       0.00798485       0.36721004      -0.70177788       1.82758593       0.21548550
O        1.32319697      21.77590636       8.17644810      -4.42505568       0.71286041       6.23674675      -3.87295141       2.67473362       0.11311262
O       -0.00244246      22.26451757       9.01289324       3.47012495      -0.74705857      -3.18681086       4.34670478      -0.85962303      -1.71159093
O        9.85732352      11.49774916      12.04530708       3.17252938      -0.81805490      -3.20328559      -0.75804911       4.01019416      -3.98379015
O        9.97857819      11.24842712      13.14727002      -0.98073383      -3.28136419      -0.03774535       1.26431031      -2.79072040       6.40494485
O       14.92177178      19.83588480      -0.02597545       3.66699683      -0.47594128       0.13419823      -1.10037946       2.63914426      -3.17586027
O       15.44839550      18.99029856       0.64244325       2.05509703      -0.98812655      -2.47836592       0.76952434      -3.80037854       1.12835301
O       13.08874176      14.06739080      16.47211352      -6.14733832       0.09302144       1.78854133       0.70715137      -1.71397082      -0.53511351
O       12.55543570      14.86191404      17.18365846      -0.15969973       0.38564528      -0.35071624      -0.38370312       1.79700846       1.58587209
O       10.41050059      21.38858114      21.45191997      -2.14702400      -0.82096458       4.20050911       0.17889766      -0.36200063      -1.22133000
O       11.10882770      22.26562489      22.03374766       0.09398192      -0.59485655       1.12833550      -1.04529711       3.81025904       2.33809311
O        9.67274348       8.99241818      11.60317511      -0.27234764       2.97924934      -2.02949236      -0.68560971      -2.23612375       5.28661402
O        9.43856694       9.44154022      10.54684689      -0.48542639      -0.78955419      -2.74626453      -1.80855916       3.83318392      -3.34228403
O       17.83865109      17.35103171       5.67454754      -1.78684472       0.53873271      -5.67072183      -1.31151717       1.58450292      -6.53283829
O       17.72908669      17.90046771       4.03317398       0.95300229       0.42255037       4.43664376       0.61127523      -2.64777414       6.08856015
O        8.75790611       4.64347292      21.84384947      -1.82847713      -1.31414220      -0.02242974       3.49223882       3.35164240       0.18891266
O        8.27368742       3.56234552      22.06485571      -2.71831364      -0.23532026       0.88865131      -3.67048731      -4.85044242       1.70737630
O       21.82531005      14.22360939       1.26510344      -0.74773249       3.53976449      -5.11037180       3.60875177       2.76208438      -7.84760793
O       22.59945581      14.79842019      -0.20790971      -0.73723495      -1.88178102       4.38220169      -2.94624872      -1.22045378       6.86466820
O       16.65128193       7.76841194       4.01615249      -1.85033072       0.59849168      -0.91707556      12.22572543      -6.86793538       2.69865950
O       15.68225379       8.28590131       3.93536848      -2.30959035       3.33446754      -0.57068871     -12.89280869       8.40470358      -1.35070571
O        5.37510020      14.48876817      21.84101589       6.72064755       1.42360123      -0.51495064       3.18637884      -0.02452779      -2.99732642
O        6.79653000      13.90353245      21.33399154      -3.99121890       1.17525132      -0.37934828      -3.65688098       0.77585607       2.71197326
O       12.31478788      16.46986493      15.34445217      -1.84103187      -3.67274843      -1.68598402       4.80970727      -1.21891238       1.27280797
O       11.17643150      16.46100794      14.96777618       3.71737248       2.12373488       0.84336803      -5.08930960       0.76707637      -0.84455959
O       18.89965407       3.92246746      10.78209195      -0.25444056      -3.85825668       0.96577933       5.12502358      -7.21896668       4.11930908
O       19.87678095       2.49415110      11.30670022      -3.82859783       4.40580188       0.59256403      -5.45402821       6.97123257      -4.23154979
O       21.65225966      12.65982738      21.07735990       1.53974674      -0.21986148       5.80047999       5.38748468      -0.95917886       9.92253740
O       22.56853193      12.51012029      22.70934081      -1.74877128       1.42518964      -1.86920880      -5.39230534      -0.03612111      -8.98252672
O        5.88347732      14.95203718      13.99000990      -0.74007448       1.95217337       0.42184571       2.55309977       0.55307613      -1.49705589
O        5.36858491      14.89025080      15.07719961      -3.98728500       1.45631532      -1.53001516      -3.74951006      -0.55835890       0.45570530
O        5.70690867      22.15982385       0.63151038      -0.86866224       1.29535504       0.29726570       1.43428012       0.52997696     -14.20394242
O        5.54637439      22.14119052       1.76434551       1.25178168       0.78768062       2.04287732      -1.72172791       0.49950113      15.03269831
O       18.57095483       8.18402752      11.31356549      -2.49825213       2.50617536      -2.09297326       2.44497655      -2.74634203      -2.22155072
O       17.84645760       9.16005112      11.46791458      -1.02077988       2.59916545      -0.35863095      -0.73956030      -0.49218603       0.44838286
O        7.94551136      16.84605718       0.77266745       2.89919727      -0.25932243       2.59140751      -2.42345301       0.18704222       9.74224883
O        7.93729987      17.10941162       2.53670047       0.82439208      -1.38543722      -7.58976245       1.63815192      -1.21750916      -9.27186200
O       15.36010894       0.27447554       8.78681856       0.24479579       0.97187574      -0.52662224      15.45519371       7.25773270      -3.66109843
O       14.44843617      -0.09663696       8.95472823      -3.63769474      -2.43446855       0.96719712     -14.98970464      -7.22856871       3.68533422
O        9.97605738      11.60436458      15.74341654      -0.38906281      -0.49359225      -4.55615917       1.05127313      -3.04493875       0.02392007
O       10.70590019      10.54704028      15.90273386      -2.56583495       2.41799020       3.28066389      -1.76840645       4.14332064       0.29514641
O       16.43182034      13.20079279      14.03766879       1.52836911       2.15468541       0.42447429       0.01200243      -2.50311757      -2.50897386
O       16.09633126      13.59743710      15.10763072       2.99065960       2.71296431      -2.51428202      -0.87715407       3.02284183       3.56293294
O       15.19685221       4.04687295      18.96884267       6.23434736      -4.72197671     -10.14119965      -5.00040784       2.86294980       3.83863868
O       15.90237779       3.71591336      18.16584692      -9.35989173       8.79714374      10.23246611       5.22054132      -2.58128162      -5.09488502
O       15.84349742       7.51564760      12.68847274      -2.01374511       0.27915895      -0.57895211      -2.16902126       5.32943693       2.71537384
O       16.04633332       6.61448383      11.95947566       1.10594269      -0.00102951      -0.80385103       2.22982967      -4.33400279      -3.82156331
O        7.10576614      14.98336492      17.55902400       2.81368679       0.55825014       0.59116408      16.34203108      -8.63970787       8.58252914
O        6.37243718      15.39324807      17.12253271      -4.66896820      -1.86760688       0.37029316     -16.66611279       9.53461529      -8.14279952
O       16.13100565       4.84298730      15.70537843       2.69234231       3.49338612       0.30974598       1.15897010       0.01513797       0.23732192
O       15.38678302       4.97559302      16.67732452       4.33946100       0.30825864      -0.53333315      -1.00390411      -0.27525998       0.26082604
O       13.87008979       9.06566242      15.00814550       0.51463413       1.78327992       1.15254196       5.41540147      -3.92343662      -5.56526549
O       13.28751136       9.72767080      15.65469747      -1.68788148      -3.08418899       1.25558115      -5.52746189       5.49735219       7.00608931
O        8.30096375      10.86523870      16.71905913       5.11086211       1.45790136       1.42991525       1.40044804       1.75596585       0.02913219
O        8.37473007       9.63629656      16.70299401      -2.35637549       1.56867682       1.82711044      -1.80785590      -1.75012108       0.49776347
O       15.72278161      20.27121957       5.34967713      -4.28363364      -0.62664480       4.35220984      -7.66387886      -0.92459810       5.18274076
O       14.28461879      19.91908170       6.33903880       1.52178780       1.19453553      -3.57117904       8.17188025       1.25646585      -5.72120862
O       21.72920535      17.20619653      21.28938201      -1.06596496       1.61153076      -3.20546911       1.97412421      -1.41092909       3.53216701
O       22.38100366      16.67962967      22.70929939       1.26755069       0.15582729       5.61942552      -2.19585121       2.34021130      -4.15771450
O       16.56466725       8.12484860      15.37263347       2.57549945       1.54130808       0.59077499       2.56931524      -2.15634677       1.03294813
O       17.75067670       7.75902152      15.69019787      -2.81590740       0.99387429      -0.77090059      -2.63677571       1.47762218       0.17510430
O        5.56892845      12.91423596       8.20142881       1.08917746      -2.02321025       4.43235888      -3.62204384      -7.90966907       0.83299911
O        5.90213144      13.98816730       8.21178753      -1.34546442       0.79201468      -0.63633578       3.34990253       7.65903404      -1.28202812
O        7.15246322       8.18372138      18.09551236      -0.53121389      -2.31990285      -0.29350409      -0.06088080      -0.94453283      -4.87791058
O        7.02332776       8.19681627      19.28629161      -0.99403544      -0.38483483      -0.92970448       0.15741286      -0.61813895       5.67957619
O        3.90232165       7.12726541       8.63735310      -1.07393740       0.40170887      -1.88465744       0.73343171       1.56517142      -1.80074524
O        3.42802256       6.19291680       9.20928553       0.92427925      -1.23706672      -1.42888411      -0.85587824      -2.34213441       1.25527520
O       22.47045183      10.04349781      -0.01295911      -3.97254126       0.56358822       2.80492375      -6.63710934       1.08254436       3.86221640
O       21.11379092      10.02354908       1.02333199       6.25569696      -1.23345210      -4.73705310       6.51063404      -1.84688240      -4.88366963
O       13.20566604      16.41102827      13.16788852       3.94973952      -4.70447889      -1.16709152      -2.11152379      -1.20750545      -2.38018949
O       14.09513482      16.86926415      13.82050906       1.14279656      -1.06808924       2.16316167       3.30169724       0.04227261       4.76950471
O       10.16394389      12.85227449       7.51557568      -3.64229921       0.19792246      -1.19237607       0.02032505       0.50256756      -1.48538890
O        9.76272629      13.63230557       6.62143944       3.11645229       2.37609927       0.16997830      -0.58237740       0.24510497       0.13974496
O        6.35415592       9.03795553       9.31225429      -1.58216718      -1.00791168       1.24008443       1.25984686       0.73445113       3.40381650
O        5.67133800       8.88738876       8.32279934       5.28681618       0.63644696      -0.38526931      -1.38602870      -0.55784798      -3.04452798
O       17.36583344      15.87946605       8.27069752      -2.50207692       1.51977633       3.98754877      -5.33789135       7.40051312       4.07780314
O       16.58368056      17.40467785       8.89209127      -0.30446434      -1.31361639      -2.65409229       6.33245273      -7.85417504      -2.28539767
O        5.39607485       4.93658268       0.08650125      -2.42360170       0.71687989       0.52398275       4.59790113       1.49799935       7.56017000
O        6.48252325       5.25642161       1.37523839       4.10340123      -0.68445871       3.39498433      -4.74142613      -0.42719170      -7.19946763
O       12.42893925       5.07178662       4.87436930      -1.56227685      -4.19613551       3.27912711      -7.10024332       7.00670367      -3.92070202
O       13.07189312       4.26565713       5.34457785       0.25915352      -2.54450529      -3.92196275       5.62718466      -6.07881599       4.24438946
O       11.03344195       5.28344143       9.80188181       0.13546797       2.41242315      -1.13802161      -3.02813022      -0.78833958       9.88559925
O       11.49151624       5.55332087       8.76836509       1.54438047      -3.27622240      -0.82231565       2.69143483       1.02327470      -9.66189609
O        6.62523398      12.32177475       9.43240931       0.50336523      -1.29109882      -1.74050515      -2.34951525       1.90005618      -0.49570785
O        7.54570253      12.37372820      10.26230423      -1.05482198      -3.06749931      -1.51747816       1.19531483      -3.34147549       0.34428191
O        7.77305494      12.14808026       6.24372604      -0.84368092       2.17511267       0.97444302      -1.01331552       0.22534187      -1.57272398
O        6.96179399      12.36869442       5.28464332       4.10260679      -0.43054757      -0.75019432       1.76544633      -0.72993628       2.44011413
O        8.57595322       0.50617713       8.85949370       1.10069198      -0.83687411      -5.76524989       0.29230776       0.37567109      -9.66731883
O        8.61974245       0.60160080       7.06367172       1.17407110      -0.05849012       2.82656516      -0.33558799      -1.27059965      10.73657898
O       22.07569131      14.60120572      15.85100395      -0.25222105      -1.36463997       0.62697356       0.02566637       3.62062927      -0.50422444
O       21.79057135      13.48983762      16.16286621      -1.10116282      -1.19455547      -2.77289303      -0.02222018      -3.99188753       0.79435387
O       10.72920045      16.00406887       9.02391288      -1.59863665      -0.01199736       0.81698501      -3.41856925       0.56296660       0.16941750
O       11.86014600      15.62504407       9.03189574      -0.17587806      -2.52870214       1.30842674       3.19277922      -1.64081822       1.04825592
O       12.56254678      21.61234123       1.49816684      -2.46754916      -0.91413494       1.19458903      -1.94948468      -0.62870920      -5.18700913
O       12.92862323      21.77540209       2.60990163      -0.46983164      -1.22652873      -0.94956800       2.02226156       0.88028685       5.73688594
O        9.34835706      -0.04951662      13.69878084       1.00841081      -0.14664854      -0.42252998       1.39491860      -1.28926633       0.08668614
O        8.94353663       1.09307931      13.52752588      -0.12446291      -1.39908716       2.17504907      -0.68940673       0.97734315       0.32007567
O       11.84363744       7.66825669      14.87108160       0.47428160      -0.24958680      -0.26447282      -3.06291901       2.97658834      -2.75965421
O       12.57238572       7.13508271      15.61660901       0.58515790      -0.03564106      -2.50458253       3.07809673      -1.38303189       2.49262440
200
Lattice="22.43773069742029 0.0 0.0 0.0 22.43773069742029 0.0 0.0 0.0 22.43773069742029" Properties=species:S:1:pos:R:3:momenta:R:3:forces:R:3 connectivity="_JSON [[0, 1, null], [2, 3, null], [4, 5, null], [6, 7, null], [8, 9, null], [10, 11, null], [12, 13, null], [14, 15, null], [16, 17, null], [18, 19, null], [20, 21, null], [22, 23, null], [24, 25, null], [26, 27, null], [28, 29, null], [30, 31, null], [32, 33, null], [34, 35, null], [36, 37, null], [38, 39, null], [40, 41, null], [42, 43, null], [44, 45, null], [46, 47, null], [48, 49, null], [50, 51, null], [52, 53, null], [54, 55, null], [56, 57, null], [58, 59, null], [60, 61, null], [62, 63, null], [64, 65, null], [66, 67, null], [68, 69, null], [70, 71, null], [72, 73, null], [74, 75, null], [76, 77, null], [78, 79, null], [80, 81, null], [82, 83, null], [84, 85, null], [86, 87, null], [88, 89, null], [90, 91, null], [92, 93, null], [94, 95, null], [96, 97, null], [98, 99, null], [100, 101, null], [102, 103, null], [104, 105, null], [106, 107, null], [108, 109, null], [110, 111, null], [112, 113, null], [114, 115, null], [116, 117, null], [118, 119, null], [120, 121, null], [122, 123, null], [124, 125, null], [126, 127, null], [128, 129, null], [130, 131, null], [132, 133, null], [134, 135, null], [136, 137, null], [138, 139, null], [140, 141, null], [142, 143, null], [144, 145, null], [146, 147, null], [148, 149, null], [150, 151, null], [152, 153, null], [154, 155, null], [156, 157, null], [158, 159, null], [160, 161, null], [162, 163, null], [164, 165, null], [166, 167, null], [168, 169, null], [170, 171, null], [172, 173, null], [174, 175, null], [176, 177, null], [178, 179, null], [180, 181, null], [182, 183, null], [184, 185, null], [186, 187, null], [188, 189, null], [190, 191, null], [192, 193, null], [194, 195, null], [196, 197, null], [198, 199, null]]" energy=-185.3524587870504 pbc="T T T"
H        0.22981748       6.19323944      13.92116414      -0.19049735      -0.38527127       0.29295933       0.41543924       0.74163503      -1.72790659
H        0.40864001       6.52181817      13.15663546       0.14993408      -0.05025515      -0.18808196      -0.39052827      -0.74387993       1.72984260
H       16.01071652       7.95024854      21.47006891      -1.19162325       0.41178118       0.36894758       0.01450787       0.11781503      -0.17689184
H       16.21399954       8.67561407      21.67027189       0.77302633      -0.03798704      -0.24959703       0.01849800       0.07030101      -0.13506562
H        6.09639029      14.77997026      10.07220690       0.03071900      -0.40129985      -0.31904390      -2.64357425      -0.57978217      -0.49404352
H        5.25192682      14.58122529       9.90873564      -0.01488418       0.38223055      -0.16753373       2.61347861       0.66498099       0.56472593
H       18.30856621      21.83391461      13.65079828       0.57927813      -0.03621149       0.13170043      -0.16267211      -0.64734418       0.03361812
H       18.11742711      22.57950655      13.58422638       0.78829613      -0.82660725      -0.45897143       0.04354992       0.46069041      -0.02563231
H        5.47916485      11.39688560      12.94807739      -0.66029728       0.19808342       0.20455524       0.78721519       2.00893395      -0.42948200
H        5.94944503      12.13222574      12.79850953      -0.09796147      -0.16726348      -0.46324544      -1.67885739      -1.59171717       0.56751525
H        8.52715301       4.56965678       7.36478209      -0.63775846      -0.14882742      -0.35311472      -0.56823390      -1.07487942       0.42878432
H        8.78112491       4.71323482       6.68520630      -0.82382522      -0.30963469       0.28411018       0.82713939       0.75855907      -0.70842494
H        3.89792203      11.60053012      13.56706403       0.50435250       0.51096347       0.76863624      -0.34422577       0.86190742      -0.14883855
H        4.36425798      12.24747556      13.55862590       0.32204961      -0.58194018      -0.07880504      -0.11424839      -0.43154830       0.27531627
H        7.98008156       3.61801418      14.41772067       0.83220693       0.50045914       0.01678214       3.40338825       2.35889944       2.46523362
H        8.38485904       4.34747519      14.78754073       0.43691420      -0.60097259       0.62500182      -1.92321892      -3.05672483      -1.64685221
H        5.42521064      12.06303250      15.17772646       0.72773934       0.73798386      -0.15024565       1.48449148       0.37173492       1.64780144
H        6.07646408      11.78094886      15.61665107       0.78292687       0.00034352      -0.12667898      -0.70141215       0.24765135      -1.29881689
H       12.30926821      13.44480652      15.40263340       0.13653629       1.52157563       0.25506150       1.46481491       0.93128901       0.21776840
H       11.67681855      13.57997702      15.08210372       0.53269348      -0.78494601       0.68299123      -1.30842389      -0.19714731      -0.40125241
H       10.44731821       0.54185279       0.50234037       1.07779679      -1.59000833       0.08796730       3.70548116      -4.20184378      -1.33144995
H       10.28301634       0.64108313       1.27052216       2.05822707       0.39694963       0.15715781      -2.15768220       2.34525507       1.72496041
H       20.46398358       4.39208943       4.62558860       0.26333764       1.01873701       0.53000671       3.75234031      -2.56696897      -1.33073515
H       21.18583574       4.16372763       4.07707062       0.20292381       0.50750685       1.11654225      -3.30767113       1.51360065       1.79732658
H       11.14433177       4.26159345      11.84442881       0.95516622       0.07101593      -0.32749476      -2.02784840       0.70640093      -1.11569616
H       10.36270960       4.51185747      11.73242634       1.03260064      -0.48804164      -0.13480296       3.20179189      -0.36226250       1.17789827
H       13.36083976      20.46434061      11.93845849       0.88148319       0.13511505       1.11602199       3.22173861      -4.44083538      -2.77206972
H       13.68702653      19.80914014      11.24167598      -0.55691287       1.38784890      -1.16673388      -2.57263209       4.25047781       4.43126694
H       15.01594286      21.73493886      20.08701137       2.24090041      -0.83491929      -1.96658169       1.89007280       2.56127928       5.18249639
H       15.14118757      22.16212644      21.00315619      -0.63055231      -0.41958784       1.28542806      -1.39621961      -3.12693739      -5.69278297
H       21.19904160       7.31862205       1.21426093      -0.41993112       1.79627183       0.78541622       4.41234853       1.63023684      -0.63218662
H       22.07084614       7.63359034       0.90885655       0.01143363      -1.09524338       0.35381419      -4.28860631      -2.54875564       1.56640172
H       11.59276332      22.55522927      15.22331069       0.21554203      -0.49677582      -0.30226879      -0.40717003      -3.72723634       1.82340810
H       11.47979641      21.73887804      15.57256387       0.53109160       0.41254332       1.19722507       0.49284522       4.10664682      -0.82839575
H       16.19409363       6.91022825      22.99252626      -0.88792631      -0.25056031      -1.09465553       0.63533332      -1.28441802      -0.88283862
H       16.80862806       6.39910717      22.65549923       0.30987637       0.73453443       0.97991596      -1.38673316       0.95685927       0.84059662
H        7.42188101      12.99406361      14.05358280      -1.01281662      -1.27602389       0.46479850       1.33442669      -1.84679030      -1.79899120
H        7.69594897      12.56656559      13.31321177       0.50340048      -0.60369968       0.46424399      -0.60445895       0.80131265       2.01175801
H       17.37617269       9.29262352      14.92427081       0.56087612      -1.40960401      -0.81902930      -0.81303736       1.85527654      -2.39289987
H       17.05763068       9.87245170      14.29626192       0.68439980       0.41790467       0.46153872       1.41076961      -1.32465313       2.21893608
H       11.24125792      13.73437653      10.62728884       1.70869693       0.33561638      -0.40962428      -0.56615899      -0.88451932       0.15392353
H       11.86656257      13.75703391      11.01217484      -0.02948419      -0.13691081       0.68077476      -0.26270845      -0.42221775       0.55416148
H       12.33712870       7.00183483       5.24784115      -0.01238114      -0.02300585       0.18523287      -2.82146486      -1.97967842       0.56904685
H       12.83706690       7.38855679       5.16000071       0.75260245      -1.52403673      -0.32554735       3.33511113       2.70502136      -0.18387531
H       21.09207239      -1.39758996       2.79620153      -0.56205568      -0.97843221       0.70115014       0.71185804      -0.78210915      -1.02675018
H       21.71363760      -1.88106546       2.45540997       0.27976508      -0.62165495      -0.26091223      -0.91334227       0.67829083       0.93043454
H        0.45232673      22.49918122       6.54593305       0.97071126      -0.29670642       0.57398417       1.90445104       0.00603907       2.13814086
H        0.06862403      22.20117067       7.37313465      -0.38723914       0.33464097      -0.09122627       3.56613007       2.18142481      -3.96430521
H       11.77371958      19.97273933      12.19169439       0.37246323       0.38884594       0.75192427       1.04380683       1.24013310      -1.15052058
H       12.24607964      20.46729801      11.69569030      -1.00570755      -0.32619434       0.04244509      -0.47131769      -2.47339474       1.29093029
H        1.82368698      18.94312199      10.60203585       0.06271607       0.42051848      -1.39386301       1.90851504      -1.63079967      -0.42777480
H        1.91451453      18.37162189      10.00510742       0.45353839      -0.24689252       0.61773571       0.56885606       1.51877421       1.82169121
H       21.44324473      13.58815218      11.58942469       0.94562146      -0.16932705      -0.86387501      -0.31067927      -3.38742209       0.57313916
H       21.42501914      12.71426420      11.92902098       0.40395058       0.53003874      -0.22097872       0.39838971       4.05018430      -0.41709503
H       15.39548565       5.35885652      13.31809194       1.15667168      -1.47199022      -0.88633599      -0.77309114       0.46182218      -1.43857090
H       15.97456180       5.15618878      13.69337013       0.16276675       0.32808362       0.01334857       0.49027021      -0.70342586       2.02125820
H        9.62439485      17.24689828      10.27556831       0.35372020      -0.42816437      -0.82182538      -0.80360082       0.43173120       0.62881046
H       10.34340800      17.29785088      10.02441505       0.17238328       0.67474049      -0.08494057       0.00332050       0.81719847      -1.23399586
H        1.28541339      17.30830716      18.72987877       1.64620436      -0.29403480       0.68664179      -0.33577061      -0.35506305      -0.66048243
H        1.25153431      17.78122520      19.34220985      -0.60968358       0.22452091       0.02003495      -0.64187914       0.75166225       0.36633923
H        7.16204663       7.90181355      10.92713568       1.11483487      -0.63795960       0.66090406      -1.36932285       3.21741721       3.50944279
H        6.88545361       8.57452966      11.54836115       0.01860977      -0.44932182      -1.29527692       0.79045452      -2.60935905      -4.39788342
H       -0.20899584      15.24945406      12.33247867      -0.32421433      -0.00476353       0.97846602      -0.78788195       0.46447360      -0.47692030
H       -0.20966950      14.49940238      12.51352142      -0.19421131       0.22057078      -1.04685627       0.52649624      -0.08039558       0.14966848
H       21.39012111       0.26399968      14.55626933       0.02382748      -0.63450836       0.04117046       2.14743791       1.07735137       0.47717725
H       20.97454462      -0.14825256      14.19945600       0.07403187      -0.34862405      -0.52855289      -1.17414307      -1.77715966      -0.62129859
H       19.32857434      12.95325933      14.93455800      -0.55822032       0.05174718      -0.22421130      -0.54018840      -0.30552081      -0.36682294
H       18.55487792      13.19085302      14.91240271      -0.17409502      -0.22676842      -0.10812544       0.30738560       0.05242360      -0.12112156
H       22.21771881      13.05482278       8.11827989      -0.22804734       0.50750537      -0.29297030      -1.25958328       0.62008281       0.58069597
H       22.25766395      12.82915867       8.88745765      -0.25622306      -0.11787702       0.10199616      -0.45451420      -0.26551412      -0.22877906
H        1.65130056      14.40504411      10.26732460      -0.03565787      -0.39069927       0.32077525      -0.12146378      -4.49447839      -0.31720478
H        1.62154220      13.46261021      10.35155516      -0.07490227      -0.22439719      -0.66272692      -0.24502201       4.84038933       0.28585853
H       13.03054152      12.95568676      12.44371457       0.53495403      -0.26768405      -0.61323212       0.01275189      -0.06246146       0.12983122
H       13.20739835      13.26242281      13.17587163      -0.03446963      -0.22756263      -0.21106568      -0.67558002       0.11086934      -0.99343090
H       14.06166999       2.31099676      14.99675562      -0.63263365       0.59699018       0.19926237       0.77653893      -4.07081953       0.28269704
H       14.16934333       1.40352469      15.11538253       0.18127392      -0.21044789       0.98219348      -1.04771962       3.34805624       0.81415597
H       18.30855572      10.95292689      11.70015273       0.60189636      -0.62463087       0.32977015       1.90715679      -0.95611181       0.32004636
H       19.03798064      10.80542239      12.09918588      -0.63039391       0.09960816      -0.17596323      -2.04515762       0.97047191      -0.26748000
H        4.10768402      14.89050693      14.66313384       0.00835277      -0.63947619       1.07505798      -4.47064262      -3.81979780       0.45441422
H        3.14787959      14.64525993      14.42925296      -0.03482098      -0.12298765       0.18273970       3.16415789       2.73612679       1.69292578
H       -0.59732556       8.18863753      16.16575111      -0.67089054       1.39303593       0.01292353       0.40223941       0.82635831       0.36307408
H       -0.03145818       8.57931031      16.60157973      -0.12198270       0.30492493       0.50627285      -0.31009657      -0.48917489      -0.32203136
H        8.75515182       8.23147159      22.08991160       0.98196136       0.05184805       0.48678272       0.63711782       0.89596961       0.18902324
H        8.06002318       8.61700721      22.19292483       0.49518900      -1.02052962      -0.00285807       0.46298635      -2.26653406      -0.13825883
H       13.01377772      -1.52766942      13.01174936      -0.07965707      -0.32046224       0.65131424       1.56270483      -1.35282152      -3.78928427
H       12.88726470      -1.13072954      13.48183099      -0.40135155      -0.57957047       0.79174827      -0.90524622       1.80675525       2.99911559
H       19.81681200       9.10565668      15.05679126      -0.34152064       0.91305617       0.86534350      -0.57540652       0.95207015       0.43731189
H       19.17535931       9.56487525      14.91108772      -0.37570229      -0.50791978       0.28795052      -0.36353460      -0.25229040      -0.14996963
H        7.98111028      12.69696404       9.35806182       0.18891059       1.07142521       0.83751709       0.72921564      -0.57144360      -0.32809490
H        8.57639421      12.76061322       8.81255813       0.42586483       0.54439328       0.17657936      -0.33489818       0.22810944      -0.32693245
H        8.66755756      10.02022409      13.62474692      -0.03252283       0.54850485      -0.24950395      -0.79875632       1.87458129      -1.59034126
H        8.38011925      10.79384199      13.55280376       0.68143247       0.15815454      -0.45922941       1.27695604      -0.56961103       0.53626997
H        0.29033716      23.41630864      16.40048444       0.05848995       0.59101554       0.49099914      -2.28402278       3.89389664      -1.42025834
H       -0.19065902      24.19168990      16.11396692      -0.83087094       1.22345128      -0.20495759       0.97453072      -3.97667361       0.75573333
H       15.73641917      13.10589049       8.82133773      -0.38332622      -0.62529621      -0.52355489       2.16593908       2.29856119      -1.25323831
H       16.51151397      13.62982306       8.75117197      -0.82991372      -0.22609925      -0.33177721      -2.99779720      -2.64671523       1.24365319
H       11.91522169      12.69714385      12.22662968      -0.77194229       0.24069937      -0.60060977       2.32436857      -1.85005258      -0.77022471
H       12.47642379      12.01659270      12.03101371       0.28606834       0.97877717       0.16223643      -1.98897508       1.91658263       0.94208407
H        6.48818134       6.72832132      11.89993604       0.11843309       0.22623564       0.25322704      -0.82184880      -0.01714846      -0.45432168
H        6.28802984       6.88862746      11.15355666      -0.54400153       0.61165982       0.73273254       0.72773993      -0.54601854       0.34794698
O       11.87937215       0.99674837      17.08329945      -2.01737234       0.42094489      -0.70172187       0.87096374      -1.87485498       0.59958984
O       11.19834440       0.88280338      18.11679881      -1.53124570       0.76405776       0.31390897      -0.79327210       2.16229305       0.14239816
O        1.25278190      21.78956130       8.27373651      -4.45376701       1.08330753       5.83735241       2.49341639      -1.54628926      -2.53412008
O        0.05099115      22.25338021       8.95961308       3.20854132      -0.96392245      -3.58458191      -3.85670517       0.66230663       2.56865305
O        9.90120556      11.49109848      11.99112824       2.72680402      -0.07424416      -3.59234041      -0.19534672       3.05800634       0.28116448
O        9.96850375      11.19172377      13.15639572      -0.42935733      -4.14942543       1.13637542       0.93777391      -1.19751237       1.25847596
O       14.97403749      19.83484781      -0.02891329       3.29560368       0.42029949      -1.10931400      -2.36726592       4.06935377      -2.93395874
O       15.48243022      18.96988879       0.60994550       2.64821876      -2.07682240      -1.63990365       2.46648471      -4.15676332       3.14269547
O       12.99919957      14.05830496      16.49625677      -5.70222976      -1.24931783       1.14564273       3.84144810      -3.50148999      -4.31518305
O       12.55188262      14.87040343      17.17995682      -0.52394373       0.96047018       0.34307396      -4.35639380       3.64900678       3.91838460
O       10.37441109      21.37523329      21.51753248      -2.81907541      -0.80884398       4.29538242      -2.76612167      -1.67270475       0.70770678
O       11.10855658      22.26308273      22.05511449      -0.17165652       0.40028968       1.85308417       0.07658716       5.23012159      -0.22955139
O        9.67082817       9.03357594      11.58509690       0.14392366       2.27446719      -0.67819625       2.44050745      -2.54483340       3.65983287
O        9.42674508       9.43198428      10.50161639      -1.20370131      -0.56073228      -2.86443637      -2.92563636       1.06030050      -0.07647800
O       17.81334613      17.35593789       5.57739629      -1.73035329       0.15397005      -6.70842057      -1.99981310       0.52427912      -0.90999670
O       17.74950181      17.90169672       4.10855886       1.53716202      -0.03641195       5.28514382       0.78829443      -1.57135521       0.22834061
O        8.73556008       4.63149251      21.83819413      -0.74792190      -0.35554753      -0.64497375       0.58290161       4.76340848      -0.58601762
O        8.22437736       3.54972738      22.07785436      -3.38458179      -1.18310795       0.71504827      -0.15916024      -4.70537620      -0.52548968
O       21.81807570      14.28203788       1.17719053      -0.11299365       4.08969967      -5.87603108       0.63837310       0.79111997      -1.19993004
O       22.58294825      14.76798915      -0.13660967      -1.42967062      -2.24879791       4.97297636      -1.01712245      -0.02823066      -0.18053056
O       16.64514319       7.76850191       3.99884591       0.22133563      -0.45919887      -1.07803636       3.30133324      -2.94496633       2.11053323
O       15.62398661       8.34703634       3.92340983      -4.91252401       4.65128366      -0.86888255      -3.95452898       2.32588055      -1.09623889
O        5.48708546      14.50951590      21.83298148       7.45595323       1.47387644      -0.19358080      -1.28093548       0.80506182       2.76450984
O        6.72980148      13.92022579      21.33285589      -4.32786796       0.73726362       0.05658282       1.83415885      -1.31444270      -0.63755119
O       12.29593371      16.41174501      15.32537294      -0.21238380      -3.98690433      -1.21824123       5.83757913      -0.81216440       2.86251750
O       11.21898957      16.49560531      14.98168136       1.71674263       2.56047109       0.85251199      -5.54210799       2.26421293      -2.13320101
O       18.90995356       3.85742880      10.80400013       1.18377321      -4.58092214       1.87068780       3.67310558      -4.14868367       1.91844358
O       19.81088063       2.57464598      11.30891257      -4.71503639       6.02597731      -0.30202508      -4.34236240       5.91108485      -2.66330590
O       21.68264094      12.65829817      21.18436083       2.27525229      -0.40909682       7.89523214       3.85260400      -0.44802113       3.34658449
O       22.53068118      12.53074100      22.65851200      -3.06021088       1.19764882      -4.35689362      -4.57383245       0.14772347      -5.06873542
O        5.87627414      14.98303371      13.99039198      -0.26315073       2.23384703      -0.15865040       2.92375156       0.68203689      -1.02983296
O        5.30086657      14.90786940      15.05760877      -4.63175837       1.16027106      -0.90573054      -2.72961860       1.92157315       0.56398162
O        5.69818768      22.18255807       0.61027896      -0.08614882       1.87937698      -3.27400337       0.85443429       0.92361472     -11.43866546
O        5.56293476      22.15892125       1.82265297       0.57446908       1.19476915       5.29716179      -1.54509895      -1.52461975       9.86753805
O       18.53028203       8.21970473      11.27885305      -2.37558567       2.30262607      -2.65040117      -0.89222026      -0.61123465      -2.50174114
O       17.82590301       9.20262443      11.46287767      -1.85687722       2.75046790      -0.11159215      -0.95084097       2.01520415       1.14313937
O        7.98510639      16.84425064       0.82438211       2.30052941      -0.29099398       4.10066908       0.17001833       0.58646053       2.29062286
O        7.95609176      17.09072826       2.41029606       1.50580754      -1.28675482      -8.50957497       0.26271254      -0.40264230      -0.80600683
O       15.38704985       0.29744030       8.76329053       2.75011016       2.16702599      -2.00435639       6.91912759       4.52162172      -0.10073152
O       14.36280278      -0.14811060       8.97747256      -7.10644798      -4.03989836       1.83120507      -8.80162429      -3.25458043       1.12299673
O        9.96641020      11.59204442      15.67575640      -0.87861215      -1.25930488      -4.18974163      -1.17770647      -2.48585693       1.32489719
O       10.66828875      10.59149068      15.95784030      -2.59013601       3.19470758       3.49723955      -0.31884365       2.35943014       0.26588578
O       16.45266208      13.22594416      14.03748154       1.02927668       1.26548466      -0.55915790       1.40580537      -1.46490455      -3.05033062
O       16.13728505      13.63913701      15.07883200       2.39940507       2.88286895      -1.32404556      -1.35589018       1.75728302       3.30405496
O       15.27585339       3.98180774      18.83051785       4.52322391      -3.73115222      -8.00459684      -1.45574324       1.28065710       0.40124470
O       15.77511936       3.84743989      18.30977988      -7.65216841       8.42869182       8.82690051       2.11778676      -0.56829775      -0.74425041
O       15.81362333       7.53116332      12.68071480      -1.98833561       1.66731424      -0.34009330      -0.22349302       0.86717110      -0.12102549
O       16.06647918       6.60419809      11.93542688       1.37027836      -0.87745940      -1.85691837       0.66128125      -1.36753113      -0.31504774
O        7.17495768      14.97758777      17.57130628       5.86255780      -1.17431652       1.29631542       8.98240717      -3.92639781       4.52552758
O        6.27589987      15.37739275      17.11408893      -7.37552138      -0.22077003      -1.17143229      -9.06428962       4.03465855      -4.61586641
O       16.17391126       4.89187736      15.71439637       2.75045008       3.27139247       0.81015197       1.67860797       0.14964000       0.23597157
O       15.44939147       4.98027758      16.67244805       3.80839607       0.17102520      -0.27150681      -1.07254306       0.56803873      -0.28684191
O       13.89439527       9.08883249      15.01783369       2.26666887       1.65796661       0.12804614       6.87803829      -5.44340143      -4.81494772
O       13.25570985       9.68766530      15.68852802      -2.51370473      -2.20030936       2.98783151      -5.90919394       4.50368954       4.82993830
O        8.38601485      10.88175991      16.74109945       5.78129162       1.09585278       1.29997450       0.18994508       3.13043581       0.32845743
O        8.33364720       9.65297811      16.72951240      -2.72475517       0.59949660       1.63269239      -0.50844035      -2.47257038       1.36361851
O       15.64675659      20.25903309       5.41898623      -5.50588804      -1.07806419       4.62556582      -2.53961958       0.25034030       1.63415328
O       14.31306999      19.93727150       6.27847192       2.33272850       1.19712294      -4.13112032       2.48957713       0.05717468      -1.67516963
O       21.71384739      17.22898386      21.24829017      -0.66011530       1.11537665      -1.94303421       5.30580487      -2.02100344       8.58522548
O       22.39464611      16.68313757      22.78792491       0.64395702       0.52834527       4.14831936      -4.92704178       1.04165574      -7.07825276
O       16.60312981       8.14139197      15.38518332       2.21282178       0.90218251       0.75532869      -3.32359920       1.23058908      -1.38821422
O       17.70460190       7.77501074      15.67625680      -3.12526939       0.99382641      -1.08583434       3.55211347      -1.59656862       0.59453407
O        5.57720997      12.87607260       8.26559636       0.38516995      -2.81863080       3.96757076      -0.73801855      -5.25024945       0.26209628
O        5.89292558      14.00379795       8.19987664      -0.22165659       1.12882585      -1.27905821       1.25076884       6.22417245      -0.51779427
O        7.14265046       8.14784109      18.08024303      -0.49511870      -2.22479238      -1.52781831      -0.84369455       0.25212222      -3.10874638
O        7.01253605       8.19065937      19.28278974      -0.50155299      -0.66048955       0.26011558       0.70689561      -0.21513519       3.87754028
O        3.89200742       7.14316971       8.60867804      -0.56688608       1.02633466      -1.95996081       0.30235128       0.00563693       0.36261868
O        3.44444283       6.17411735       9.19180548       1.04805685      -1.24665336      -1.35262699       0.11952339      -2.68011047       0.93830041
O       22.39833737      10.05604783       0.03187702      -4.53940208       0.71580743       3.04912313       1.45265490      -0.02373055      -1.69843054
O       21.21251154      10.00708330       0.94606472       6.33099753      -0.86888786      -5.17478898      -1.57433285       0.34104081       1.21347837
O       13.26404978      16.34040576      13.14626623       3.67821450      -4.59320272      -1.96183074      -1.53044463      -0.32492011      -0.46919492
O       14.11742107      16.85257839      13.86100673       1.83265019      -1.30105351       2.84419534       1.00533442       0.02863872       0.43449859
O       10.10789510      12.85994258       7.50016306      -3.58329080       0.39193779      -0.75459495       0.15873111      -0.46611352      -0.86420343
O        9.80813795      13.66718482       6.61845395       3.24558642       2.55178297      -0.20284306      -0.23739084       0.42010269      -1.61947972
O        6.33324149       9.02709013       9.33498804      -0.76896836      -0.48419626       1.87931672       1.55178868       1.76576860       5.44044761
O        5.75441033       8.90130200       8.31173081       5.25243521       0.73970760      -1.07346066      -2.09893848      -1.76103368      -4.32605804
O       17.31912277      15.91795029       8.33203941      -3.65201096       3.30688919       3.81351486      -2.01788290       6.64847458       0.90789221
O       16.58694857      17.37531118       8.84879579       0.66742267      -2.40185121      -2.88175434       1.76559093      -7.01627167       2.83802914
O        5.36697887       4.95144909       0.11165630      -1.17295879       1.14599457       2.54808503       4.97961821       0.81044172       5.80701930
O        6.53423210       5.24043499       1.41158854       2.84869274      -1.29364653       1.01547273      -4.48708838       0.38164097      -5.55308902
O       12.38488729       5.01815770       4.91657275      -3.67234196      -2.99719141       2.56584764      -5.19972331       5.22177487      -0.55994966
O       13.08338227       4.21668475       5.29675515       1.21991730      -3.79024609      -2.32644527       4.52562251      -5.11126859       1.49920688
O       11.02343617       5.31696885       9.80282346      -1.13419679       2.08397050       1.05786313      -2.59148236      -1.54211362       4.21271605
O       11.52084089       5.49951659       8.73894647       2.03539966      -3.62542530      -2.75780860       0.68402768       1.71100253      -3.22011526
O        6.63022565      12.30365964       9.40542400      -0.16276105      -0.79944638      -1.66237061      -1.89014685       0.72259306      -0.35432359
O        7.53351344      12.31917619      10.23855055      -0.74003335      -4.15509519      -1.55838000      -1.55362292      -0.24620211      -1.04204626
O        7.75751936      12.18134386       6.25808463      -1.04775578       2.27479828       0.98812131      -1.17731818       1.11721379      -1.02709617
O        7.02583794      12.36031246       5.27591238       4.26184793      -0.22587334      -0.61804618       0.21054976      -1.68197860      -0.57995012
O        8.60003143       0.49492172       8.75617370       1.78884764      -0.32025918      -7.69833864       0.33330678      -0.01914110      -6.09744633
O        8.63847880       0.59597706       7.12486107       1.59158694      -0.42961116       5.17821869       0.00077770      -0.03414195       6.29812179
O       22.07638633      14.58394584      15.86068674       0.22404524      -0.94289588       0.48370747       0.75336544       3.94054545       0.44086550
O       21.77156213      13.46514415      16.12363642      -1.20546458      -1.73164918      -2.41752766      -0.10051891      -1.60722385       0.57599473
O       10.70137049      16.00451280       9.03777423      -2.09330307       0.31980417       0.65403724       0.69644833      -0.31985505       0.04214667
O       11.85739961      15.58271331       9.05401535      -0.17415867      -2.90671034       1.24156450      -0.18023497       0.09423303       0.94135301
O       12.52517652      21.59700814       1.50499195      -2.63869941      -1.19722545      -0.15857362      -2.25346812      -1.46321883      -5.99159950
O       12.92653167      21.76143858       2.60559706       0.23242845      -0.82025021       0.26739436       2.92647111      -0.59227813       6.61325846
O        9.37598253      -0.05310920      13.69057108       2.29069921      -0.40076802      -0.48230985       0.11756305      -1.27146366       0.91831873
O        8.93715839       1.07843077      13.56349989      -0.55499721      -0.57222443       2.58176447      -0.95468233       1.40888665      -0.97807828
O       11.84251407       7.67257973      14.86126001      -0.80779781       0.64419659      -0.99896531      -8.25982990       6.42910859      -8.41740570
O       12.59227030       7.12682405      15.57834373       2.02588115      -1.08536060      -2.22401727       7.96162840      -6.20874786       8.04053266
200
Lattice="22.43773069742029 0.0 0.0 0.0 22.43773069742029 0.0 0.0 0.0 22.43773069742029" Properties=species:S:1:pos:R:3:momenta:R:3:forces:R:3 connectivity="_JSON [[0, 1, null], [2, 3, null], [4, 5, null], [6, 7, null], [8, 9, null], [10, 11, null], [12, 13, null], [14, 15, null], [16, 17, null], [18, 19, null], [20, 21, null], [22, 23, null], [24, 25, null], [26, 27, null], [28, 29, null], [30, 31, null], [32, 33, null], [34, 35, null], [36, 37, null], [38, 39, null], [40, 41, null], [42, 43, null], [44, 45, null], [46, 47, null], [48, 49, null], [50, 51, null], [52, 53, null], [54, 55, null], [56, 57, null], [58, 59, null], [60, 61, null], [62, 63, null], [64, 65, null], [66, 67, null], [68, 69, null], [70, 71, null], [72, 73, null], [74, 75, null], [76, 77, null], [78, 79, null], [80, 81, null], [82, 83, null], [84, 85, null], [86, 87, null], [88, 89, null], [90, 91, null], [92, 93, null], [94, 95, null], [96, 97, null], [98, 99, null], [100, 101, null], [102, 103, null], [104, 105, null], [106, 107, null], [108, 109, null], [110, 111, null], [112, 113, null], [114, 115, null], [116, 117, null], [118, 119, null], [120, 121, null], [122, 123, null], [124, 125, null], [126, 127, null], [128, 129, null], [130, 131, null], [132, 133, null], [134, 135, null], [136, 137, null], [138, 139, null], [140, 141, null], [142, 143, null], [144, 145, null], [146, 147, null], [148, 149, null], [150, 151, null], [152, 153, null], [154, 155, null], [156, 157, null], [158, 159, null], [160, 161, null], [162, 163, null], [164, 165, null], [166, 167, null], [168, 169, null], [170, 171, null], [172, 173, null], [174, 175, null], [176, 177, null], [178, 179, null], [180, 181, null], [182, 183, null], [184, 185, null], [186, 187, null], [188, 189, null], [190, 191, null], [192, 193, null], [194, 195, null], [196, 197, null], [198, 199, null]]" energy=-166.04665022339898 pbc="T T T"
H        0.21313213       6.13800159      13.92024043       0.04403825      -0.08933293      -0.29763061       0.42642630       0.74366217      -1.57605178
H        0.41266252       6.49140809      13.17788855      -0.04773916      -0.22655397       0.40841930      -0.41889948      -0.75487821       1.56940973
H       15.72634161       8.07453951      21.56679380      -1.04863758       0.71993068       0.32667732       1.97003343       2.02545004      -0.17272530
H       16.36904284       8.68477174      21.60717922       0.47954658      -0.10144857      -0.24109247      -2.02593451      -1.83159606      -0.32184050
H        6.04869101      14.68607763       9.99261293      -0.23792299      -0.33513290      -0.31734568       0.40918568      -0.01150184      -0.01430484
H        5.29361284      14.69043209       9.90918176       0.21181217       0.47670684       0.07791986      -0.45608467       0.05495948       0.04276265
H       18.46710205      21.77150450      13.67104889       0.61879717      -0.56145594       0.07255360       0.03982130      -1.94605352       0.33728485
H       18.33907961      22.45152175      13.46192713       0.87513460      -0.23184086      -0.52862297      -0.00630543       1.61175598      -0.65310897
H        5.33602565      11.48273056      13.00441189      -0.53529092       0.41747903       0.14027329       0.09378738       0.79266559      -0.28946183
H        5.87267689      12.06070064      12.72369791      -0.44535412      -0.37264206      -0.15285565      -1.05978550      -0.35250638       0.46965385
H        8.37285344       4.50762797       7.31431256      -0.71205396      -0.33699393      -0.03311092      -0.74310387      -0.70034683       1.73341780
H        8.62616208       4.66127311       6.68157952      -0.36310906      -0.07450589      -0.33216450       0.89335277       0.45510761      -1.71599708
H        3.95819971      11.72698668      13.74651637      -0.02546261       0.39394643       0.81785268      -2.78175036      -0.88136856       0.83341505
H        4.45767084      12.13137622      13.54498099       0.65570540      -0.29198660      -0.08765956       1.95108027       1.55928145      -0.52870371
H        8.21995283       3.73902053      14.44035730       0.95218894       0.29015149      -0.09044158      -0.99046203      -1.92136617      -2.43878459
H        8.46415709       4.14492236      14.90358103       0.32700864      -0.81822433       0.49073360       1.02638106       1.60864678       1.78469555
H        5.64265548      12.24459082      15.20702736       1.03420897       0.75336502       0.35651828       0.97120850      -0.12198242       1.37809042
H        6.22776546      11.77229872      15.52680377       0.62344333       0.02090342      -0.55054773      -0.56841823       0.70124353      -0.88128165
H       12.41645619      13.85779303      15.47846054       0.63333649       1.79450906       0.30050229      -1.20007606      -0.40977075      -0.53913254
H       11.76885475      13.39075756      15.23726263       0.38822237      -0.70297995       0.67022914       1.12422620       1.00998211       0.89836718
H       10.81174309       0.09590293       0.54365294       1.86785894      -1.51189164       0.34859450       1.82902570       7.25898185       2.16007696
H       10.73136805       0.77502251       1.33286666       1.50808215       0.42111515       0.27392851      -2.03475817      -4.20983562      -0.24110899
H       20.60589683       4.59681304       4.73172312       0.68988315       0.67375050       0.60645351      -1.04989624      -1.59053817       2.48291637
H       21.15974086       4.34144778       4.38103359      -0.16518783       0.92330488       1.20116894       1.57777958       0.05459183      -0.88318267
H       11.34197262       4.29218358      11.76101983       0.82264603       0.13624136      -0.27534228       1.88852626      -0.03734586      -1.14037788
H       10.65184091       4.37044909      11.75263784       0.98832099      -0.62040595       0.27680879      -1.36607991      -0.51470365       1.81148211
H       13.63438005      20.41006460      12.12014692       1.25058079      -0.50814973       0.23088910      -0.51760292      -0.89857187      -4.31274464
H       13.49438221      20.24415247      11.13523941      -0.80344839       2.02017117       0.34352514       0.45334709       0.82216509       6.40228166
H       15.54725892      21.63093591      19.86437198       2.02153509       0.00772358       0.47780048      -4.40790333       3.25326518      11.71210970
H       15.01338662      21.93065647      21.00982640      -0.16888362      -1.55750149      -1.53077487       4.73662066      -3.99245258     -12.25922848
H       21.20845639       7.78919005       1.39227448       0.48942531       1.94551158       0.73136386       2.32707480      -1.40257920      -1.32231566
H       21.97592768       7.33941976       1.06936870      -0.74285283      -1.21358682       0.90050188      -3.21442297       0.82050771       1.28878612
H       11.63256373      22.34724608      15.17475830       0.11255964      -0.97547007      -0.13047187       0.10253045      -0.67097998       0.06590128
H       11.62014166      21.93320718      15.83327283       0.54644603       1.05042480       1.06847137       0.10731159       0.98432060       0.64259352
H       15.98862209       6.83100683      22.71300690      -0.75219365      -0.43108887      -1.12730749       1.98014880      -0.72602662       0.73223958
H       16.83632386       6.59444925      22.89086870      -0.06606830       0.87813223       0.89636309      -2.10821234       0.39278323      -0.63432479
H        7.22263981      12.62157891      14.11531562      -0.56029193      -1.80338115       0.08461012       1.89470363      -1.07135229      -1.23149098
H        7.81638433      12.42029075      13.48711575       0.39874186      -0.68438479       0.84567751      -1.69861340      -0.08485009       1.23025255
H       17.48552134       9.01390323      14.67252725       0.31555528      -0.69692637      -1.18259547      -0.77830509       3.91355932      -0.15973560
H       17.26142639       9.89957942      14.44127515       1.00635984      -0.26064696       0.71912864       0.91510625      -3.02173428       1.21558816
H       11.62597670      13.79651971      10.54179569       1.54223561       0.21549707      -0.49393043       0.29110418      -0.20335088      -0.40552610
H       11.85414612      13.68154740      11.21572943      -0.05006976      -0.49426691       1.11970964      -0.64074239      -0.75655472       1.07949993
H       12.25932422       6.97976875       5.30485625      -0.42626595      -0.09385841       0.23041428       2.47301037       1.00053710      -0.79496461
H       13.11192978       7.07406350       5.07735497       1.24731763      -1.12576109      -0.27053295      -1.82879058       0.11747957       1.58739713
H       20.98555278      -1.66619976       2.90747813      -0.16025427      -1.26009393       0.26100360       2.61596305      -1.43331220      -2.45271435
H       21.74124277      -1.99673165       2.44589538      -0.15558950      -0.36163626       0.28346844      -2.54248500       1.27874420       2.60061405
H        0.70669778      22.45207963       6.74296038       1.09552943      -0.11911605       0.96996543      -0.24767083       0.20669512       0.62572797
H        0.04180832      22.32152459       7.26115923       0.17022922       0.54113835      -0.61996961       1.57693876       0.44228162      -0.51335689
H       11.89912700      20.09226683      12.38239689       0.54846183       0.55020553       0.88976685       0.47158396       0.49913625      -0.51290862
H       12.02771426      20.30804532      11.67355341      -0.75230890      -0.87923760      -0.37645147       1.27034192      -1.40151720      -1.52761873
H        1.86271707      19.00792833      10.28914596       0.08773004       0.37203034      -1.18852779       0.68272043       0.23116519       1.25816176
H        2.03472546      18.33075776      10.16357909       0.57388072      -0.24567106       0.60940156       0.91932863      -1.29369664       0.50424840
H       21.64059709      13.50492161      11.38542540       0.63685097      -0.30306020      -0.85925209      -0.39926371       1.25645937      -1.65313765
H       21.52869545      12.93304255      11.87593764       0.42359812       1.02647562      -0.12054864       0.64307453       0.01298554       1.04322808
H       15.64860037       5.02720441      13.05670440       1.04684048      -1.33195083      -1.24238188       1.16775324       0.42392731       0.82633659
H       16.04726565       5.22689026      13.77266794       0.29124737       0.28208066       0.36781587      -1.28318100      -0.67407295      -0.83105233
H        9.67342890      17.15761564      10.04226902       0.10482038      -0.22645735      -1.09072958       0.31233250       0.78092582      -0.55226882
H       10.40293298      17.47670158       9.99894409       0.32397999       0.84222826      -0.02999488      -0.45038504       0.13773793       0.89093758
H        1.65463883      17.26964564      18.90960062       1.32604420       0.10141773       0.94536784      -2.63606224       2.54041435       1.64605592
H        1.10609622      17.81268090      19.34066084      -0.46850474      -0.14385474      -0.28360942       1.81983556      -2.46045071      -2.18036123
H        7.38983848       7.79338624      11.14870101       0.82251224      -0.34862446       0.98752989       0.32909992      -0.51451421       0.05668903
H        6.91372708       8.39038076      11.16745622       0.07814526      -0.91390350      -1.67579720      -0.25223318       0.47308583      -0.76136992
H       -0.31048320      15.24463094      12.56953902      -0.42307489       0.00312047       0.98377021      -0.49945857      -0.67339570      -0.27982752
H       -0.24733802      14.50744170      12.29329572      -0.06695664      -0.20770758      -0.79640794       0.99725337      -0.16916474       0.32068700
H       21.43662995       0.11034657      14.56864009       0.30580864      -0.67695647      -0.05250609       0.27200629      -0.48492721      -0.98972377
H       20.96132808      -0.28005125      14.06556208      -0.08245065      -0.72301591      -0.51610339       0.49565282      -0.04404989       0.39222661
H       19.20539255      12.94300124      14.87594256      -0.59190847      -0.18213968      -0.23458126       1.37064464      -0.98996851      -0.42052775
H       18.49788874      13.12415672      14.87093123      -0.39730378      -0.29090343      -0.31106623      -1.65632771       0.41140057      -0.19146366
H       22.12901026      13.12289868       8.09446505      -0.45121109       0.09447019       0.22849429       0.10847138      -1.42395145       2.86400918
H       22.15371089      12.79997323       8.88822770      -0.53505767       0.00381573      -0.22933818      -1.30769386       1.89336180      -1.81238020
H        1.62957771      14.21472707      10.35601106      -0.15427845      -0.93719601       0.41623570      -0.05093422       1.28438455      -0.22880556
H        1.58071946      13.51028256      10.18947086      -0.22694237       0.33020760      -0.63576188      -0.61233877      -0.86154251       0.26824781
H       13.15512707      12.89878025      12.30657697       0.53520756      -0.23479340      -0.47506452       0.02380440      -0.04125475       0.28927938
H       13.18662569      13.20028444      13.07603291      -0.20133466      -0.22439010      -0.54672341      -0.34590177      -0.11116677      -1.55127268
H       13.95781313       2.30751521      15.06952267      -0.17590126      -0.46999821       0.41309461       1.22140789      -3.57822314       0.60325733
H       14.16615381       1.45718412      15.34739337      -0.16867062       0.66193344       0.90645493      -1.12576019       3.44518945      -0.84313243
H       18.41850167      10.79417322      11.74338061       0.20846021      -0.70145024      -0.10553732      -3.39407826      -1.39376108      -3.12927394
H       18.90480071      10.85440769      12.09711878      -0.26224215       0.34205645       0.29365118       2.97154790       1.78242900       3.24742061
H        3.99202543      14.67045585      14.90551619      -0.54139762      -1.02643698       0.84066611       0.92242173       0.19545987      -2.07272582
H        3.20781732      14.64385165      14.54773370       0.29491190      -0.03333562       0.73047248      -0.34634848       0.56585152       1.41660625
H       -0.73745347       8.55094824      16.19321080      -0.47153942       1.61042536       0.20416031       1.07461795       0.71949481       0.67041154
H       -0.06704850       8.63026958      16.70474962      -0.19301769       0.17567034       0.33231668      -0.85247692      -0.20141737      -1.08547699
H        9.01331362       8.27903161      22.22931181       1.20373809       0.33895821       0.62839419      -0.00430670       0.74326864       0.03885784
H        8.19472453       8.29643164      22.19597183       0.55763283      -1.53899352      -0.05691906       1.18471300      -1.33180683      -0.00920575
H       13.03488529      -1.62863555      13.07554194       0.17152887      -0.30047751       0.05755970      -0.24657166       0.88392413       0.24253288
H       12.77929351      -1.24968182      13.75102541      -0.54676254      -0.53737930       1.24885932      -0.04482282      -1.22402847      -0.68161467
H       19.75983802       9.32897542      15.29389349      -0.17123470       0.92328217       1.00388727       0.31259690       0.44843456       0.72360321
H       19.05924333       9.45887849      15.00329116      -0.63241325      -0.42975001       0.40140788      -1.02583794      -0.13578120      -0.39418294
H        8.08628677      12.93890704       9.52223500       0.58584544       0.88811605       0.43619407       1.07411051      -0.45053355      -2.51623826
H        8.64543861      12.90994275       8.87380780       0.24300321       0.64280090       0.35003816      -0.83040827      -0.15852338       1.52228393
H        8.64951811      10.18517517      13.52063478       0.01900973       0.58153532      -0.48106975       0.79221926      -1.85847386       0.58492630
H        8.56643527      10.85827359      13.46132346       0.71351033       0.61726066      -0.37980773      -0.44198124       2.82111636      -1.29526788
H        0.21497031      23.70164350      16.45404838      -0.62551234       1.70052399       0.01083892      -2.39452323       3.21168518      -1.59845306
H       -0.35796893      24.33651499      16.08412104      -0.46846774       0.02305444      -0.05007257       1.05060621      -2.77432891       1.05238563
H       15.69040820      13.01198445       8.66442379      -0.23320376      -0.21051373      -0.78813121      -1.23880251      -0.19486174      -0.94543399
H       16.24639141      13.50586238       8.70074720      -1.21299265      -0.70018841      -0.11865949       1.36106704       0.53624437       1.14727618
H       11.78987990      12.73623240      12.05187967      -0.32711905       0.17795827      -0.77525779       1.38841128      -0.39083368      -0.00188235
H       12.49093993      12.28421722      12.08272420      -0.15438987       1.14913169       0.18638799      -1.33531353       0.33979171       0.08623581
H        6.48658379       6.76384719      11.93687392      -0.08614952       0.11911348       0.18010318       0.02219688      -0.49644603       0.75090408
H        6.17786298       7.00886194      11.31748424      -0.43228933       0.49100767       0.55499255       0.00846610      -0.04252025      -0.93958493
O       11.85141022       0.99400053      17.07461273      -1.77018120      -0.60790311      -0.14176402       0.31985078      -1.94780447       0.84428330
O       11.16687570       0.89475100      18.12402000      -2.14302292       0.73597041       0.26900746      -0.01028628       1.71795489      -1.23250821
O        1.19048506      21.81125804       8.36056213      -3.49621919       1.82692594       5.41672234       7.98669267      -1.11392918      -0.90852020
O        0.09118047      22.24990786       8.90552574       1.78908957       0.50031311      -3.33279937      -7.89189216       3.85352349       4.03547228
O        9.94996405      11.48878462      11.93661635       3.60391045      -0.58637143      -3.06424083       1.70116710      -1.81617069       3.48545663
O        9.96245766      11.12745616      13.17297447      -0.49325826      -3.92289321       0.80890460      -0.37987307       0.91075809      -3.24619440
O       15.02716006      19.84527018      -0.05518565       3.39362468       0.99723056      -2.28529153      -0.23460396       3.05951649      -2.52064096
O       15.52319721      18.93247455       0.59207256       2.87458308      -2.76441974      -0.96331917       0.45653730      -3.34190643       1.80628118
O       12.91722081      14.03275416      16.50950876      -5.09485149      -2.27631310       0.74816078       1.09302214      -4.40027012      -0.45308867
O       12.53805465      14.88850863      17.18374887      -0.92495451       1.59522668       0.23186705      -2.56643558       5.57747012       2.03166637
O       10.32637155      21.36265790      21.58509801      -3.51718858      -1.08023809       4.45301346      -4.36544342      -0.58773909       0.00583577
O       11.11031209      22.27418070      22.08362711       0.41934441       0.71696457       1.71403601       3.18819706      -2.33230099      -2.42275815
O        9.67778397       9.06659156      11.57712965       0.08165212       2.03819367      -0.15590912      -1.49670832      -1.11912431       4.59852148
O        9.40690059       9.42808213      10.45826110      -1.44171652      -0.06646663      -3.10476989       1.54221767       0.71244104      -2.94066301
O       17.79477775      17.35467226       5.47916330      -0.82057897      -0.31111550      -5.85283863       2.10731218      -3.17009336       7.02369032
O       17.77939872      17.90194059       4.18924106       2.16638831       0.02043626       4.54914594      -1.56442370       5.20634109      -6.72815420
O        8.72601164       4.62412661      21.82102924      -0.57175279      -0.88263680      -1.19634023       0.30743696      -1.72934564      -1.77521836
O        8.16847946       3.52598979      22.08238798      -3.01189093      -1.53022368       0.27453778       0.17436054       1.24829710       0.41750208
O       21.81410718      14.33748337       1.08581878      -0.49258507       3.18517363      -5.69416864      -4.85046607      -1.20723237       4.44169420
O       22.56250508      14.72921173      -0.05590415      -1.13355896      -2.57134806       5.09784013       4.27094920       0.07013769      -4.70629107
O       16.65265226       7.76040885       3.98166793       0.45678260      -0.73692805      -1.37397192      -1.71357388      -0.04278694      -1.32480555
O       15.55107047       8.42036550       3.90347770      -4.46264190       4.98309528      -1.27463343       1.49399998      -0.57092816      -0.49948675
O        5.59612301      14.53173214      21.83594942       6.39538262       1.68850999       0.89221736      -7.11323580       3.97510015       3.91519003
O        6.67311854      13.92638816      21.32840601      -2.78256691       0.06233373      -0.82282501       7.18220424      -3.82373879      -4.69571014
O       12.30736744      16.35252384      15.30693507       1.91678745      -3.73188493      -1.22630637       6.00376669      -1.35982583       2.70586740
O       11.22867016      16.53959009      14.99130788      -0.13933678       3.25949868       0.25586108      -6.77119623       1.17077648      -2.22424798
O       18.92876943       3.78909217      10.83131911       1.53777001      -3.88926283       1.67698054      -0.02504301       2.66432437       0.19202803
O       19.73801505       2.66518396      11.30600778      -4.69193476       5.70271369       0.04709359      -0.05275409      -3.24107919       2.81192962
O       21.71757546      12.65526566      21.31253176       2.07619243       0.05172835       8.32733345      -3.71807219       0.94644384      -1.93943351
O       22.48311967      12.55241703      22.58841213      -3.32323540       1.73330641      -4.47642506       3.23609424       0.73778898       2.31521234
O        5.87755974      15.01763829      13.98814623       0.27996292       1.92113019      -0.27782220      -0.25391024       0.40675985      -0.14414187
O        5.22372019      14.92587144      15.03968792      -5.13554605       1.16750432      -1.15507179      -0.13363977       0.10679143       1.49674480
O        5.68765544      22.21409853       0.54046315      -1.19397663       1.92251845      -5.54822529      -0.91517191       1.06864164      -6.29304150
O        5.57120016      22.17572993       1.92157443       0.73843136       0.97644427       7.37945332       0.14619256      -1.79649817       6.29412466
O       18.48909105       8.25182890      11.23020751      -2.99799043       2.10891974      -3.60442619      -0.43980264       0.05551498      -0.42364827
O       17.79558226       9.24870200      11.46346428      -2.40468714       3.35818379       0.02014346       0.13774451       1.00726548       1.71881654
O        8.02154333      16.83803878       0.88276943       2.87216041      -0.81296021       2.94872330       1.37601527      -2.72351475      -9.07005553
O        7.97909391      17.07065309       2.28222339       1.58838752      -1.42972536      -7.99147000       0.29477452       0.76090738       5.51147272
O       15.43231906       0.32783025       8.73517883       2.77581325       1.95675376      -1.63539734      -6.23181907      -3.16963085       1.39566855
O       14.24850680      -0.21601359       9.01148047      -7.20657103      -4.43065061       2.75236937       5.25428490       3.57994694       0.34915266
O        9.95599476      11.57257285      15.61639201      -0.60133569      -1.03106905      -3.59884222      -0.78064867       1.36511500      -1.88366154
O       10.62584245      10.64440891      16.00889082      -2.76653438       3.54206413       3.30665727       0.35298707      -1.69609354       1.89763771
O       16.47200922      13.24388130      14.01750172       1.39309435       1.18837977      -2.14007715       0.55343689      -0.36618974      -4.59755031
O       16.17401397      13.68963421      15.06747911       2.50536213       3.45466852      -0.27920494      -0.59916796       0.57218799       4.60155207
O       15.34360540       3.92759018      18.70559227       4.40090690      -3.40853693      -7.98221825       0.11540280       0.87801188       1.23518791
O       15.66549115       3.97039817      18.44185303      -6.71246871       7.90397027       8.37681717       0.08192829       0.24151700      -1.56216576
O       15.78042881       7.55301998      12.67110986      -2.54403571       1.35897153      -0.74788490      -1.12971290      -1.45821058      -1.44477183
O       16.08395426       6.58962309      11.90508258       0.71361568      -0.96023441      -2.19354143       1.57030052       1.23114838       1.09285785
O        7.27383112      14.95716667      17.59600095       6.24196104      -1.03080314       1.51551703      -2.86410371       1.33048477      -0.27131795
O        6.15876507      15.37650890      17.09520227      -7.33567737      -0.10166052      -1.14168671       1.79256150      -1.16360363       1.20119432
O       16.22061130       4.94484844      15.72923352       3.11848611       3.21223737       1.05096724       2.34879469       1.42416228      -2.74408839
O       15.50673490       4.98534253      16.67343778       3.16849501       0.49050003       0.16080412      -3.79073659      -0.86461939       4.11668591
O       13.93894206       9.10641616      15.01693932       3.15564922       0.51598684      -0.16674528       2.60765618      -2.15048955      -0.68074411
O       13.20727004       9.66770837      15.74053668      -3.69505416      -1.00759716       3.50157461      -2.91744986       2.40363911       1.53006059
O        8.47591716      10.91117632      16.76208869       5.96671823       2.36394565       1.34759262       0.91850622       2.19788200      -0.88761829
O        8.29476733       9.66538971      16.75997326      -2.51111536       0.95552254       2.28095285      -0.16593169      -0.72678765       3.16393687
O       15.56366731      20.24473518       5.48312547      -4.94135089      -0.53435022       4.11566326       5.98119722       2.39232616      -1.78422618
O       14.35074914      19.95013833       6.21948339       2.24998227       0.57911697      -3.21236410      -5.58911036      -2.88572966       2.79979154
O       21.71337051      17.24159333      21.23973531       0.41311839       0.39053216       0.46191307       3.48784243      -1.94215671       9.44446526
O       22.39206120      16.69632817      22.83126503      -0.85814443       1.25052100       1.60538807      -3.68184819       2.72355298      -9.38357150
O       16.63410322       8.15486911      15.39897524       1.54117613       1.37262399       0.78516602      -6.64424211       1.05898647      -2.03464754
O       17.66546979       7.78704317      15.65993510      -2.09760689       0.62483247      -0.99224059       6.79737129      -1.70795175       0.46940919
O        5.57751578      12.82161991       8.32022931       0.15595280      -3.87284483       3.46331264       0.62292610       0.19155148       0.76765898
O        5.89326807      14.03301866       8.18373382       0.12439164       2.20446836      -1.14226843      -0.50339399       0.07058004       0.45616131
O        7.13371329       8.11797251      18.05155605      -0.60130843      -1.98090989      -1.63501640      -1.76902338       0.87364761       2.09154045
O        7.00173888       8.17528447      19.28757665      -0.43360659      -1.07281227       0.15933690       2.16593826      -0.93885600      -1.84156618
O        3.87939425       7.15915545       8.58469196      -1.30040359       0.99641566      -1.33764247      -1.37842541      -0.78743791       1.60325852
O        3.45893251       6.14835299       9.17963913       0.86301132      -1.72271783      -0.74030364       1.30410792      -0.48784937      -0.61628860
O       22.33696207      10.06803228       0.07502159      -3.29993287       1.03532335       2.20484070       6.46199488       1.27824842      -5.56905707
O       21.29876018       9.99246599       0.87037762       4.76951528      -1.36585727      -4.56086356      -6.17774999      -1.33795343       4.92489452
O       13.31572571      16.27565576      13.10915788       3.35805996      -4.32243129      -2.52391677       0.59501951       0.76635741       1.19811946
O       14.13768708      16.83382781      13.89996015       0.65832734      -0.91551094       2.10912252      -0.86981257      -1.46061639      -1.95003309
O       10.05258770      12.86239990       7.48984678      -3.87168230      -0.19124805      -0.58103819       0.65156766      -0.01101544      -0.80146633
O        9.85763387      13.70207389       6.60720623       3.31406349       1.85635990      -0.82015852      -0.92589543       0.38442044      -0.88629146
O        6.32194828       9.02361938       9.37093750      -0.34259774      -0.02389434       2.94200596      -0.54084188       0.98141243       2.97598649
O        5.83156687       8.91156081       8.28907915       4.79392247       0.29072989      -2.19334236      -0.00572477      -0.88262658      -4.46034666
O       17.25962218      15.98270667       8.39035561      -4.07953961       4.80853145       3.74720949      -0.58047130       1.90155247       1.09985702
O       16.60166323      17.33149195       8.79953452       1.27249616      -3.21981775      -3.60099380       0.49631746      -2.96082511       0.16837407
O        5.37031184       4.96736354       0.16469893       1.40372853       0.93383819       4.36699306       7.28431727       1.28383106       8.19674199
O        6.56165148       5.22554578       1.41202377       0.66236932      -0.85217883      -0.86260820      -6.23399196      -0.73927831      -6.07442328
O       12.32685527       4.98534547       4.94503459      -3.91062187      -1.57133586       1.49289051      -3.57425242       3.23998448       0.49422761
O       13.10898187       4.14621143       5.26334252       1.87542715      -4.97328050      -2.10635790       3.63183469      -3.23534312       0.20301765
O       11.00128692       5.34312084       9.82706164      -1.24723967       1.28533423       1.95914979      -1.45712010      -1.88813362       1.64924438
O       11.55569022       5.44478125       8.69492566       2.03543340      -3.55952690      -2.76849618       0.16082776       1.61510193      -0.74436266
O        6.61801872      12.28842426       9.38370569      -1.15420622      -1.51753317      -1.21970238      -1.57901354       0.22548751      -0.21092222
O        7.51779507      12.25526755      10.21301431      -1.20659920      -3.83910293      -1.90124731      -1.27877833       0.48868460      -0.92419802
O        7.74050390      12.21802871       6.27480340      -0.92981783       2.59491879       1.23801605       0.22142101       0.48029374       1.34443724
O        7.09370312      12.35560452       5.26990174       4.64170374      -0.32663465      -0.39551590      -0.47613310      -1.21690293      -1.49072643
O        8.62883706       0.48931651       8.62985021       1.73330836      -0.46653127      -8.52956467      -0.12781688      -0.03565451      -1.14181255
O        8.65983472       0.59630949       7.21440179       1.04025340       0.20718838       6.33029176      -0.19759169       0.55984580       2.07422197
O       22.08349869      14.57369142      15.87267937       0.69022109      -0.39553930       0.96555782       0.09888626       0.68737554       0.63222667
O       21.75264779      13.43457586      16.08406041      -1.39956446      -2.03534420      -2.53988537      -0.05450353      -3.51066639      -0.23180889
O       10.67317828      16.00790104       9.04865243      -1.92214571       0.23066779       0.56506737       1.43308927      -0.43374810       1.01208189
O       11.85572907      15.53988700       9.07124219      -0.19510905      -2.84457531       1.14060292      -0.77980866       0.02433875      -0.00094511
O       12.48315728      21.57341957       1.49272873      -2.83503365      -1.67966916      -1.27396703      -0.93026919      -1.79942555      -2.11322850
O       12.92847376      21.74671661       2.62414393       0.29511565      -0.95202580       2.11300808       0.80559966      -1.46786634       2.55475587
O        9.41124601      -0.05460904      13.68600909       2.36731726       0.18121407       0.11751073       0.35924969      -0.43677414       1.83203903
O        8.92420610       1.06977168      13.59819823      -1.05164325      -0.79670327       2.12670553      -0.36782592       0.50617885      -1.04167683
O       11.81652972       7.69524443      14.83296498      -2.52629271       2.29379627      -2.65450363      -8.71493750       5.54947998      -5.59102909
O       12.64034431       7.09897290      15.55692044       4.23326170      -2.47734958      -0.45052244       8.59806765      -5.06182670       6.15580602
200
Lattice="22.43773069742029 0.0 0.0 0.0 22.43773069742029 0.0 0.0 0.0 22.43773069742029" Properties=species:S:1:pos:R:3:momenta:R:3:forces:R:3 connectivity="_JSON [[0, 1, null], [2, 3, null], [4, 5, null], [6, 7, null], [8, 9, null], [10, 11, null], [12, 13, null], [14, 15, null], [16, 17, null], [18, 19, null], [20, 21, null], [22, 23, null], [24, 25, null], [26, 27, null], [28, 29, null], [30, 31, null], [32, 33, null], [34, 35, null], [36, 37, null], [38, 39, null], [40, 41, null], [42, 43, null], [44, 45, null], [46, 47, null], [48, 49, null], [50, 51, null], [52, 53, null], [54, 55, null], [56, 57, null], [58, 59, null], [60, 61, null], [62, 63, null], [64, 65, null], [66, 67, null], [68, 69, null], [70, 71, null], [72, 73, null], [74, 75, null], [76, 77, null], [78, 79, null], [80, 81, null], [82, 83, null], [84, 85, null], [86, 87, null], [88, 89, null], [90, 91, null], [92, 93, null], [94, 95, null], [96, 97, null], [98, 99, null], [100, 101, null], [102, 103, null], [104, 105, null], [106, 107, null], [108, 109, null], [110, 111, null], [112, 113, null], [114, 115, null], [116, 117, null], [118, 119, null], [120, 121, null], [122, 123, null], [124, 125, null], [126, 127, null], [128, 129, null], [130, 131, null], [132, 133, null], [134, 135, null], [136, 137, null], [138, 139, null], [140, 141, null], [142, 143, null], [144, 145, null], [146, 147, null], [148, 149, null], [150, 151, null], [152, 153, null], [154, 155, null], [156, 157, null], [158, 159, null], [160, 161, null], [162, 163, null], [164, 165, null], [166, 167, null], [168, 169, null], [170, 171, null], [172, 173, null], [174, 175, null], [176, 177, null], [178, 179, null], [180, 181, null], [182, 183, null], [184, 185, null], [186, 187, null], [188, 189, null], [190, 191, null], [192, 193, null], [194, 195, null], [196, 197, null], [198, 199, null]]" energy=-137.509292679054 pbc="T T T"
H        0.23871115       6.13178577      13.85504681       0.11217012      -0.04917454      -0.07024247      -0.54580591      -1.12109686       2.03500265
H        0.39537991       6.45278440      13.27000476      -0.01521662      -0.08363944       0.05517165       0.54631281       1.11422276      -2.04203348
H       15.55289780       8.30776531      21.65629217      -0.42293910       1.21852180       0.33616407       3.10897416       1.14499284      -0.60667819
H       16.40969377       8.58868756      21.54562386      -0.08089790      -0.63557554      -0.20524857      -3.18729131      -0.95506179       0.25013357
H        6.01914462      14.58710477       9.92554064       0.06474242      -0.43695400      -0.24552912       1.06769663      -0.23658234      -0.05440234
H        5.32266980      14.81092463       9.94078819      -0.00821097       0.60248955       0.16111891      -1.20852179       0.59353091       0.35065643
H       18.62237142      21.60582904      13.67264640       0.61435617      -0.60029259      -0.15408810      -0.47370463       1.76136360      -0.98781892
H       18.53634254      22.41419597      13.32239833       0.89959755      -0.22846135      -0.55880308       1.02048362      -2.02121404       0.86190393
H        5.20046878      11.60487453      13.04738289      -0.59379463       0.48003354       0.23128264      -1.23978072       0.04035279       0.88832237
H        5.77163508      11.98987748      12.69239112      -0.38868128      -0.19515918      -0.08558730      -0.18606515       1.01987886       0.35901151
H        8.20286500       4.39116896       7.32608570      -0.56737684      -0.51556806      -0.16645658       0.69855465       0.35650847      -1.51972736
H        8.57284028       4.66398745       6.62145852      -0.22444363      -0.01483958      -0.10832986      -0.66543029      -0.54753152       1.75534808
H        3.89654500      11.82033552      13.98948869      -0.19064039       0.58907359       1.03561267       1.84854980       2.38394529      -0.77135243
H        4.63241616      12.05587782      13.53527466       0.57848515      -0.38652305       0.06530018      -1.81363030      -1.60675292       2.60787083
H        8.42992984       3.76256279      14.31539847       0.82108097      -0.00546627      -0.83764134      -0.02618166      -0.03164413      -0.44143206
H        8.54172066       3.97030660      15.06172906       0.25543455      -0.71403907       0.70790728      -0.37578601      -0.76150757      -0.47082442
H        5.93361138      12.41507509      15.30979768       1.23039691       0.73630912       0.38676734       0.32661576      -0.11611088       0.98648952
H        6.35596684      11.78250575      15.36938486       0.50960943       0.19938479      -0.75148057       0.02497751      -0.05454209      -0.16746610
H       12.47903797      14.24103386      15.49844388      -0.28926424       0.91018253      -0.16231429      -3.80372426      -6.22551567      -0.50008145
H       11.94379267      13.32966168      15.43888754       1.12878492       0.52508918       0.98374269       3.64702493       6.72588582       1.09642792
H       11.24151060      -0.01001739       0.68622766       1.53631314       0.51832443       1.01891175      -2.76371543       6.45021686       0.49930732
H       11.07771281       0.70688970       1.38140552       1.64034919      -1.00315954       0.03721930       2.19251144      -4.70992917       0.90499826
H       20.71488224       4.75299965       4.95127686       0.14240983       0.62690882       1.28903818      -2.71701644       0.28747844       2.83423608
H       21.19752893       4.54911978       4.60663467       0.56437316       0.71463964       0.72890851       3.43448670      -0.27188275      -1.51436165
H       11.59687385       4.33731487      11.67279309       1.19002206       0.22849996      -0.43517871      -0.01376406       0.35823132      -0.40602097
H       10.83568199       4.19879885      11.88282307       0.71309340      -0.90909242       0.69250815       0.97058337      -1.08986827       1.82024758
H       13.89274893      20.28540831      12.05427777       0.77652001      -0.42292496      -0.69971723      -2.38301819       1.99226678      -2.04448189
H       13.36209356      20.71489870      11.40891682      -0.22211551       1.67276363       1.62165255       2.29641339      -2.03131888       2.80720114
H       15.92167055      21.67568208      20.22054261       1.21370734       0.21763317       1.80409302      -0.62694316      -0.25578932       0.41089747
H       15.11876940      21.48777475      20.39632543       0.83061483      -1.97441149      -2.86261377       1.12378287      -0.43774490      -0.79732840
H       21.40530675       8.15102283       1.51092951       1.09659431       0.72161294       0.30542727       1.12349121      -7.33642409      -0.83068575
H       21.70807859       7.14009157       1.34640040      -1.39303726      -0.19268443       1.39944699      -2.06199709       6.11701612       2.45005439
H       11.67688866      22.09077594      15.15058410       0.25521022      -1.05551973       0.15921838       0.36921584       0.17364400       4.09368050
H       11.74474274      22.21006951      16.07893162       0.50965340       1.24596203       0.75834376      -0.30823024       0.23904200      -3.39485963
H       15.91464674       6.72622330      22.49202650       0.13912034      -0.41769678      -0.51915383       3.05617574       0.66662326       2.79183729
H       16.71742128       6.80462181      23.03350298      -0.97347095       0.78823710       0.14641199      -3.47715235      -0.70673524      -2.90255799
H        7.11657893      12.15258168      14.10906691      -0.31840466      -1.90145542      -0.01924308       1.21562544       0.11624346       0.37127654
H        7.85273992      12.24674263      13.69816107      -0.04092351      -0.80278480       0.75642261      -1.30066784      -1.19046674      -0.00094452
H       17.54974096       8.94701577      14.42245537       0.34869687      -0.04508939      -0.82525603       0.01391214       0.98180273       1.52787144
H       17.53136219       9.77321654      14.60941992       1.09857898      -0.72945152       0.61235465      -0.51704545      -1.00764269      -0.66082181
H       12.01201128      13.82948929      10.50030880       1.54435236      -0.10546913       0.41960194      -1.10701870      -1.58075280       5.98905621
H       11.82142431      13.54753095      11.43432262      -0.16157605      -0.43666666       0.39361952       0.39281791       1.28922562      -5.54105316
H       12.33029020       7.00939812       5.33962195       1.20401254       0.28694534       0.08850998       5.65884371       0.19912335      -1.46603649
H       13.27816115       6.81840586       5.08979768       0.00948251      -0.94722782       0.37137854      -4.37536655       1.38243026       2.27180982
H       20.99537617      -1.99586233       2.91809627       0.06557913      -1.41005939      -0.05426358      -0.91679570       0.01572736      -0.06380922
H       21.65288040      -2.06071351       2.54161238      -0.42675211      -0.16603148       0.41303797       1.15965209       0.15480343       0.28289071
H        0.98485231      22.45934829       6.97941046       1.10712765       0.13995780       0.98496509      -0.10175285       0.98294968      -0.11599568
H        0.14544306      22.44368569       7.10866569       0.69366223       0.60528291      -0.66224770       2.10498951       0.70854193       1.03981434
H       12.06142470      20.24104775      12.53139887       0.74894518       0.79159106       0.37301714       0.39168760       0.51538044      -3.74893773
H       11.87988116      20.07163967      11.60512098      -0.34531256      -0.98255379       0.10204640       2.71825108      -0.68141806       5.20474015
H        1.92259297      19.04420732      10.04609652       0.45802013      -0.21863486      -0.67752684       1.77276271      -3.87104199       2.60376196
H        2.16969289      18.25352875      10.30738019       0.53452508      -0.15070213       0.64762992       0.30843344       2.18017156       0.35162798
H       21.80147890      13.44276271      11.14681595       0.72039345      -0.19588936      -1.13753654      -0.56967883       0.43105569      -0.04060795
H       21.65081054      13.16101830      11.87604512       0.61361091       0.85007070       0.15350029       0.72727886      -0.23355466       0.54838303
H       15.94902108       4.76139080      12.85972356       1.45749225      -0.69292588      -0.08653958       1.18991031       3.49761966       5.89195629
H       16.07092027       5.26845037      13.78832826      -0.13361679      -0.17661732      -0.58232683      -1.09372092      -3.65595678      -6.23339843
H        9.72001532      17.14605592       9.76067268       0.40817307       0.05553157      -1.25333594       2.26318653       1.88241743      -0.56022576
H       10.43259656      17.65314200       9.99522946      -0.09512570       0.63480591      -0.01243408      -2.47711335      -1.90054730      -1.23546280
H        1.86847917      17.34590784      19.17057276       0.54165668       0.55087208       1.15522415      -3.09879652       2.12265419       0.29202638
H        1.05467330      17.69683440      19.21304254       0.09826115      -0.73541446      -0.70222855       2.87112001      -1.68478641      -0.87811008
H        7.58725946       7.69652466      11.34893901       0.55128224      -0.28947719       0.33859577      -3.93617634       2.36045488      -4.84821356
H        6.93436612       8.15354571      10.76799625       0.31631030      -1.11673189      -1.41531081       3.49483920      -2.83521125       3.17263425
H       -0.40367359      15.17972936      12.79223251      -0.19723054      -0.67272034       0.66338983       0.47962467      -3.57146950      -3.39092728
H       -0.24522114      14.48600079      12.14447855      -0.00779848       0.11273208      -0.24837199       0.16089670       3.26438059       3.29820579
H       21.49299499      -0.07354362      14.51745968       0.11920474      -0.96074378      -0.35268950      -0.57787852      -1.05536109      -2.19394056
H       20.96512567      -0.44586886      13.97050076       0.13067558      -0.59041904      -0.22104955       1.04847417       0.51366444       1.28851486
H       19.11347907      12.86216155      14.81478085      -0.26288528      -0.49150362      -0.28276346       0.34671492      -0.95262437      -0.38102418
H       18.37284863      13.06622352      14.78374635      -0.65755533      -0.18192828      -0.39918841      -0.74218907      -0.09550299      -0.12473115
H       22.02229498      13.15158596       8.21033915      -0.39142298       0.22072647       0.51412876      -0.03957927       1.66751030      -2.15264254
H       21.97123185      12.82861467       8.82633162      -0.83108245       0.10113350      -0.17526562       0.19563983      -1.09624498       2.02868264
H        1.60305959      14.04209509      10.50632148      -0.04881336      -0.45627669       0.86469338       0.07793680       1.25779293       0.81593356
H        1.52510302      13.53627533      10.02105032      -0.21482239      -0.07745157      -0.78935893      -0.62354508      -0.95832042      -0.73404053
H       13.28803197      12.82140233      12.22659632       0.58525887      -0.41509008      -0.19483425      -0.02406732      -0.79325948      -0.58938076
H       13.12725060      13.13410331      12.93247529      -0.36698257      -0.32134996      -0.60649781      -0.34850042       0.12500461      -0.31584357
H       13.91229552       2.16651201      15.18290841      -0.24556639      -0.56853604       0.45215347      -1.11034546       1.57643672      -0.98457291
H       14.10953266       1.65315535      15.58864975      -0.15226725       0.73462343       1.13735690       1.30699954      -1.88518729       0.53148037
H       18.40903279      10.54654276      11.64572214       0.02134884      -1.27882726      -0.45235133       1.52427181      -1.09185700       2.28854585
H       18.89014112      10.98998862      12.25723678      -0.08852798       0.65379655       0.60849564      -1.30304639      -0.34846980      -2.12306264
H        3.91557048      14.44396977      15.05763516      -0.16431644      -0.77143195       0.53356459       1.33768873       1.71248255      -0.41150735
H        3.24230126      14.62498604      14.74691909      -0.06187654      -0.17829146       0.84784354      -2.14453989      -1.31703412       0.07192692
H       -0.80565224       8.93433048      16.29784257       0.02348281       1.42499620       0.61592157       0.88156296      -0.42293956       0.49897729
H       -0.15065566       8.68489006      16.76332198      -0.48600794       0.23025866       0.06753708      -0.84332490       0.02271353      -0.96237293
H        9.27014947       8.36057563      22.37468337       0.73076659       0.16903561       0.54960104      -3.80413549      -2.40282857      -0.92147848
H        8.40065609       7.88567448      22.20431149       1.25128206      -1.70587465       0.09127982       5.25375585       1.12466955       1.04189406
H       13.05964243      -1.63211634      13.14134677      -0.03296367       0.24812357       0.65011094      -1.18952982       1.95984021       3.20047654
H       12.68541305      -1.42959765      13.98525107      -0.20866711      -0.91969498       0.45784266       1.54538055      -1.58528390      -3.74190775
H       19.70201420       9.54958257      15.53808942      -0.42244170       0.88669950       0.92534775      -3.02323885      -0.12243544      -0.97110537
H       18.91074938       9.37135565      15.11857779      -0.39508017      -0.25724194       0.59706652       2.32573131       0.66258369       1.37510589
H        8.24139178      13.11143735       9.59512185       0.57769208       0.56123116       0.12572912      -1.25240252      -0.58008284      -0.57248650
H        8.66298229      13.08049611       8.97169129      -0.00998317       0.72917321       0.34664310       0.53607814      -0.55904639      -0.17978006
H        8.64991972      10.28676464      13.40144175      -0.09417086       0.29339827      -0.50263920       0.10366169       0.90740396      -1.27154925
H        8.75676995      11.06295047      13.37369855       0.81666859       1.04523102      -0.36693881       0.71325577       0.54810313       0.44150252
H        0.02085771      24.14486024      16.42631221      -0.71088070       1.76554031      -0.06553898       2.65223314      -0.96455325       1.48405253
H       -0.48036224      24.34039389      16.06675234      -0.80951743       0.12144484      -0.25103938      -4.30538955       0.56320117      -3.13737242
H       15.55493461      12.91869339       8.41668712      -0.97023729      -0.59802335      -1.23981499      -1.82607961      -0.97999256      -1.46033636
H       16.02016551      13.35969444       8.72406081      -0.57202561      -0.46520094       0.38741454       1.78880112       0.89164232       2.39564455
H       11.75962021      12.77411736      11.86451592      -0.11563638       0.25611098      -0.82195016      -0.30742477       0.63510727      -0.17800946
H       12.43325141      12.56953797      12.14492277      -0.18788220       1.14280983       0.28206001       0.34988039      -0.68749360       0.34800419
H        6.48192007       6.76973647      11.99896732      -0.02637976      -0.14842842       0.28087735      -0.69588104      -0.17475742      -0.49644671
H        6.07660289       7.13349073      11.42682642      -0.37775033       0.49788437       0.34187356       0.40649548      -0.73073214       0.21865086
O       11.82483182       0.98982546      17.07820089      -1.72506414      -0.19053151       0.78931204      -0.02571164      -1.45240192       1.17424402
O       11.13543629       0.90820018      18.13136113      -1.94836840       0.99753454       0.49028170       0.53049290       1.61451948      -1.89151200
O        1.15258540      21.83213791       8.44211877      -1.29911337       0.89019247       4.92047821      10.49903921      -3.45714523      -1.31219800
O        0.10513827      22.26281057       8.86112918      -0.11750173       1.38857311      -2.12312703     -10.32562742       4.58557275       4.29605885
O       10.00986998      11.48050570      11.89827217       4.04693876      -0.52279159      -1.62705649       0.78762874      -2.64807269       7.42662580
O        9.96032951      11.07268529      13.18021564       0.03432262      -3.39733017      -0.15506522      -0.09641745       2.38433690      -7.08853131
O       15.07136844      19.86957771      -0.09458597       2.02067989       2.45648449      -3.25066598      -5.03446723       7.63474108      -4.69040763
O       15.57456609      18.88106135       0.58483680       3.78305010      -3.98149694       0.10631886       5.28926894      -6.22180442       5.23672338
O       12.84282521      14.00213070      16.52365460      -4.66667911      -1.71771578       1.06094634       1.04169012      -2.25348325       1.03549018
O       12.51781469      14.92158706      17.19278831      -1.82152287       2.69206805       0.96797174      -2.30094751       2.21601096       0.97825793
O       10.27245828      21.34967475      21.64994201      -3.24416096      -1.11556184       4.10255187      -0.12909200      -1.12063985       2.19631850
O       11.13101688      22.28355364      22.10982464       2.02423139       0.58458804       1.82744388       2.51406724      -1.28428577      -4.00642786
O        9.67641430       9.09682819      11.58316084      -0.25191516       1.84806354       0.67450396       0.09738504      -1.16917866      -0.18125609
O        9.38482915       9.42948220      10.40807380      -1.73673536       0.24779877      -3.25957455       0.37525249       0.54751085       1.42901345
O       17.78513831      17.34622702       5.40130748      -0.52858291      -0.91489306      -4.41939389      -1.07348399      -4.91667065       8.18115741
O       17.81398433      17.90730423       4.24810996       2.18640498       0.68806375       2.47171579       0.77229784       3.39481857      -9.26242762
O        8.71917929       4.60353893      21.80152345      -0.55031236      -1.71966587      -1.02080976      -1.77219905      -2.98179371       0.38458836
O        8.13074166       3.50983101      22.08730932      -2.11258786      -0.69286393       0.26514357       2.35210576       3.49881024      -0.80553987
O       21.79976864      14.38262312       1.01204725      -1.81833262       2.55975741      -3.31771921      -7.36736860      -2.14893001       7.73082299
O       22.55037470      14.69969105       0.00681181      -0.25634392      -1.55307651       3.23565667       6.77737104       0.99336217      -7.62044959
O       16.65076872       7.74818476       3.95810219      -0.42259811      -0.91647618      -1.25803996      -4.19947451       1.09390043      -2.03913527
O       15.48505975       8.49718399       3.88042690      -4.04530511       5.15899842      -1.76935520       3.83757395      -1.59228796       0.41857657
O        5.68272978      14.56422617      21.85693029       4.69451495       2.97105035       2.06957539      -7.81797077       5.42524993       5.80387279
O        6.63597276      13.92581514      21.29889583      -1.64473473      -0.16377277      -2.93397275       8.09222089      -4.89454093      -5.91596858
O       12.34010551      16.29759615      15.29271613       2.63523426      -3.39056392      -0.65309662       2.12326697      -1.19870483       1.19388449
O       11.21954978      16.58797610      14.99598067      -1.16865143       3.29002767       0.08567511      -2.81845792       0.50951708      -1.08323714
O       18.95603504       3.73158271      10.85738960       2.13718968      -3.76238661       1.79551757       3.98913697      -2.86900523       2.25807989
O       19.66787426       2.74984257      11.30080645      -5.03672815       6.01442197      -0.89019356      -4.17632525       2.11155365       0.59246518
O       21.74061595      12.65519382      21.42946398       0.61987547       0.12965141       6.32800037      -6.57234650       1.42400613      -8.20518406
O       22.43643594      12.58122340      22.52377853      -2.58199271       1.96853673      -3.49353022       6.48094734      -0.24205426       8.08394027
O        5.88250873      15.05010091      13.98071958      -0.11788870       2.20134690      -0.22177028      -0.33102357      -0.56804141       3.74557183
O        5.14633682      14.93542465      15.02472033      -4.56855056       0.11319366      -1.30592123       0.81155071       2.32018905      -1.95384439
O        5.66849232      22.24290816       0.44694143      -1.28965952       2.07527889      -6.30946257       0.93306346      -0.19883785       0.00584180
O        5.58105884      22.18613394       2.04240391       0.73814092       0.67229331       7.83320627      -0.47667789       0.11041797      -0.95994729
O       18.43890172       8.28758534      11.17435968      -3.01817189       2.59589332      -3.39748115      -0.37437029       1.70620451       1.45066122
O       17.75809422       9.30221585      11.46128034      -2.56738251       3.74143423      -0.32353792       0.25369430       0.85931214      -1.17288667
O        8.06594157      16.81855879       0.90562524       2.75089063      -1.59523185       0.21891707      -0.51188315      -1.46633223     -10.63460137
O        8.00423452      17.04908058       2.17301184       1.78310193      -1.29797195      -6.07737128       1.50815260       1.01941459       9.18448860
O       15.45521563       0.34995952       8.72097264      -0.01048846       0.44031551      -0.15864661     -13.95846750      -9.81241679      -0.92259614
O       14.15382510      -0.27748429       9.04754881      -4.81799977      -3.42315267       1.88569457      14.66465689       6.38522447      -4.11668262
O        9.94196514      11.55811072      15.55735399      -1.23232991      -0.88328143      -4.04146031      -2.40098785       1.52341951      -1.41656622
O       10.58810989      10.69336044      16.06212213      -2.00931465       2.74507355       3.57585055       2.33357215      -0.97192654       2.83951277
O       16.49043613      13.26230451      13.97149232       0.61817541       1.35794444      -3.59397403      -0.58526836       0.38032293      -0.57931187
O       16.21136466      13.74402032      15.07305801       2.42037194       3.78186572       0.56370664       0.29937988       0.85646290       1.63147022
O       15.40514253       3.87319064      18.58974548       3.79487425      -3.57289001      -7.49195121      -0.15352080       1.22897159      -1.04354649
O       15.56209172       4.09296491      18.56673712      -6.81410146       7.68699040       7.79998584       0.73903821      -0.98168049       0.59961790
O       15.73785284       7.57198847      12.65318329      -2.36098185       0.76071545      -1.44441877       2.77676035      -3.80699788      -3.15625530
O       16.10252384       6.57952625      11.87666471       1.02322329      -0.37187613      -1.48564660      -3.75453729       3.04980345       3.99685779
O        7.35706025      14.94208655      17.61881131       3.82841701      -0.51770190       1.20095432     -14.53228785       4.27431753      -4.37021868
O        6.05891775      15.37129907      17.07768248      -5.25852143      -0.82014790      -0.73875752      13.52918556      -4.78928030       5.05421978
O       16.27025055       4.99266340      15.74011418       3.59460986       2.69838505       0.18952116       1.06483349      -0.83121348      -4.02076036
O       15.55675311       5.00139995      16.68385901       3.30196394       1.24770184       0.86456279      -0.44539165       0.70097165       2.48915272
O       13.98632657       9.11772008      15.01512873       2.89681789       1.13721620       0.17398613      -0.77363360       1.06255305       2.07124843
O       13.15527408       9.64824324      15.79650380      -3.34063555      -1.44338897       3.54914730      -0.06853817      -0.43935776      -0.83288208
O        8.56332270      10.94607235      16.77543705       5.41543091       1.79922187       0.66177725      -1.03491655      -3.21803367       0.50026741
O        8.25489766       9.68079704      16.79743487      -2.48471366       1.23002112       2.59123860       0.08513111       4.18307732       0.78911616
O       15.49944442      20.24254945       5.53997523      -2.98685967       0.11481553       3.21331796       7.53651139       2.09057978      -4.93749580
O       14.37145587      19.95106652       6.17764670       0.17576924      -0.12041442      -2.28165102      -7.97729403      -1.98182888       5.86599003
O       21.73353643      17.24154120      21.26065707       2.00326092      -0.36160542       2.01957363       3.89568052      -0.94160330       7.22356194
O       22.36989348      16.71744850      22.84248528      -1.62411838       1.82374995      -0.18259478      -4.00803003       3.12981470      -5.05553113
O       16.64476282       8.17804839      15.40876396      -0.50610566       2.04093509       0.08758794      -7.97406864       2.36175789      -2.15239421
O       17.65030923       7.78718011      15.64331793       0.13453664      -0.68989919      -0.92340638       7.90436026      -1.73064708       2.37715573
O        5.58797964      12.76622215       8.37772581       1.05329126      -2.34946205       3.64873923       4.12383141       9.71558104       0.63460732
O        5.89090206      14.06014388       8.16639841      -0.66259589       0.83025975      -0.85021483      -2.98415931      -8.06463902       0.52346976
O        7.11561055       8.09432678      18.03238475      -1.53518756      -1.41495274      -0.74000815      -1.35618557       0.62899645       1.81403630
O        6.99980629       8.15337698      19.28518002       0.21958769      -1.34914107       0.01228189       1.72366432      -0.70782166      -1.75028155
O        3.85595038       7.17427795       8.57166344      -1.63883957       1.24924334      -0.22876238      -2.05222865      -1.82332662       2.49934944
O        3.48222708       6.12714812       9.16600508       1.75776206      -1.21102068      -0.81151142       1.85112302       0.87897018      -1.22725450
O       22.30086891      10.09048555       0.09605895      -1.07353646       1.68395285       0.65361670      10.02194709       1.90647536      -7.76599440
O       21.35750331       9.96558823       0.81360652       2.62699605      -1.82137517      -2.88079565      -9.65206672      -2.29185253       7.15004627
O       13.36726850      16.21155239      13.07447078       3.35352838      -4.04201969      -2.50745403       1.42549151       1.74715226       2.95749207
O       14.14060885      16.81485784      13.92173662      -0.03577229      -1.48647837       0.93505961      -1.77007608      -2.15092376      -3.36669658
O        9.98880727      12.86489378       7.48015315      -4.33876389       0.25931270      -0.62688598      -0.61800346       1.80994683      -0.49449569
O        9.90484204      13.73095286       6.59126907       3.50282070       1.55320452      -1.47235978       0.47048981      -2.75217248       1.56835075
O        6.31604194       9.02422702       9.41693820      -0.34987100      -0.15027863       2.83655769       1.59618641       0.33707403      -1.39710543
O        5.90733573       8.91341667       8.25531585       5.29201933      -0.04639348      -2.32724204      -1.49515940       0.14114363      -0.92945013
O       17.20433173      16.05358862       8.44031262      -3.48919288       4.24107392       2.99591423       0.70985052      -4.88895403      -1.74304022
O       16.61860767      17.28598985       8.74221881       0.82466862      -2.41545030      -3.85489948      -1.30491728       5.47658412      -0.13828110
O        5.40024435       4.97969940       0.24450381       2.50957263       0.88868055       5.88066607       5.69491936       0.81845633       5.87042944
O        6.56051555       5.21718803       1.38311617      -0.97959920      -0.80270784      -2.61500880      -4.33921937      -0.72023502      -4.03643812
O       12.26192654       4.96587705       4.96441670      -4.43688792      -1.24508080       1.11848046      -0.89261071      -0.05469582       1.71315234
O       13.14392963       4.06862637       5.22840655       2.58777642      -5.24590806      -2.18499043       0.14310542       0.57796190      -0.88568274
O       10.97806262       5.36294244       9.86873827      -1.81429353       0.91472503       2.78264284      -0.05432255      -0.84720664      -2.34517048
O       11.58116266       5.39189991       8.65481006       1.37925257      -3.36366894      -2.33038831      -1.67119900       1.28990347       3.38062797
O        6.60120667      12.26448292       9.36239104      -1.01851994      -1.05610475      -1.28416304      -1.08716998      -0.13544874      -0.37986999
O        7.49865140      12.20440813      10.17890780      -1.34193548      -3.15883175      -2.33185194      -0.56530525       1.15010330      -0.42510625
O        7.72812794      12.26196135       6.30107730      -0.67563000       2.82098259       1.86100924      -0.34905174       0.22015854       1.32233618
O        7.15936106      12.34516166       5.25952178       4.37179267      -1.23946667      -0.70928732       1.03816043      -1.03033945      -1.03134244
O        8.65228855       0.48613436       8.49972106       1.49384713      -0.17264735      -7.83050875       0.24738393      -0.76192608       5.39681760
O        8.67748129       0.60025178       7.30588876       1.44468089       0.60925794       5.03791421       0.54676076       0.96140781      -5.79867563
O       22.09598147      14.56401271      15.88938528       0.77324327      -0.58164593       1.41245347      -0.63440163      -0.57358103       1.00515610
O       21.73187215      13.39582991      16.04395147      -1.17844431      -2.78410738      -2.61754749       0.56693376       0.16496082      -0.91476542
O       10.64518862      16.00709823       9.05898054      -1.76181122      -0.40303232       1.07886282       3.65783225      -1.42982255       1.43770274
O       11.84632237      15.49434195       9.08519539      -0.99037535      -3.02086431       0.91448305      -3.48834530       1.10735165       0.13350179
O       12.43982220      21.54241871       1.47365611      -2.68677057      -2.21001110      -1.50657198       0.04470998      -1.27600632       0.39379880
O       12.92554099      21.72739655       2.65697341      -0.66880689      -1.44561182       2.30016406      -0.31425076      -1.63335231       0.18004678
O        9.44736009      -0.05261178      13.69117569       2.12223023      -0.05151378       0.67979571       0.16658364      -0.44875076       2.41208126
O        8.90988749       1.04789851      13.62813835      -0.98262916      -1.93988636       1.64562224      -0.39143435      -0.06104411      -1.11604085
O       11.76845499       7.73682194      14.78069260      -3.41048063       3.08999452      -4.06887221      -3.49083044       4.21802101      -3.67825906
O       12.71566297       7.05481018      15.56012126       5.48329222      -3.24881449       0.70043581       3.43874739      -2.70856016       4.65172166
200
Lattice="22.43773069742029 0.0 0.0 0.0 22.43773069742029 0.0 0.0 0.0 22.43773069742029" Properties=species:S:1:pos:R:3:momenta:R:3:forces:R:3 connectivity="_JSON [[0, 1, null], [2, 3, null], [4, 5, null], [6, 7, null], [8, 9, null], [10, 11, null], [12, 13, null], [14, 15, null], [16, 17, null], [18, 19, null], [20, 21, null], [22, 23, null], [24, 25, null], [26, 27, null], [28, 29, null], [30, 31, null], [32, 33, null], [34, 35, null], [36, 37, null], [38, 39, null], [40, 41, null], [42, 43, null], [44, 45, null], [46, 47, null], [48, 49, null], [50, 51, null], [52, 53, null], [54, 55, null], [56, 57, null], [58, 59, null], [60, 61, null], [62, 63, null], [64, 65, null], [66, 67, null], [68, 69, null], [70, 71, null], [72, 73, null], [74, 75, null], [76, 77, null], [78, 79, null], [80, 81, null], [82, 83, null], [84, 85, null], [86, 87, null], [88, 89, null], [90, 91, null], [92, 93, null], [94, 95, null], [96, 97, null], [98, 99, null], [100, 101, null], [102, 103, null], [104, 105, null], [106, 107, null], [108, 109, null], [110, 111, null], [112, 113, null], [114, 115, null], [116, 117, null], [118, 119, null], [120, 121, null], [122, 123, null], [124, 125, null], [126, 127, null], [128, 129, null], [130, 131, null], [132, 133, null], [134, 135, null], [136, 137, null], [138, 139, null], [140, 141, null], [142, 143, null], [144, 145, null], [146, 147, null], [148, 149, null], [150, 151, null], [152, 153, null], [154, 155, null], [156, 157, null], [158, 159, null], [160, 161, null], [162, 163, null], [164, 165, null], [166, 167, null], [168, 169, null], [170, 171, null], [172, 173, null], [174, 175, null], [176, 177, null], [178, 179, null], [180, 181, null], [182, 183, null], [184, 185, null], [186, 187, null], [188, 189, null], [190, 191, null], [192, 193, null], [194, 195, null], [196, 197, null], [198, 199, null]]" energy=-142.8544838842751 pbc="T T T"
H        0.24931939       6.09618377      13.87388513       0.02852197      -0.12677932       0.12367396      -0.09410215      -0.22664496       0.44002539
H        0.39315871       6.43755617      13.21277539       0.01821504      -0.00326164      -0.40124036       0.09733001       0.22697026      -0.43916095
H       15.53342420       8.62477590      21.71214763       0.08719686       1.21247443       0.09509584       0.61121893      -0.10590158      -0.30563882
H       16.28745845       8.44170208      21.49483851      -0.77484419      -0.52679443      -0.18901908      -0.67316908       0.21416313       0.04874163
H        6.03155390      14.47950925       9.85015126      -0.18386836      -0.38073121      -0.25843759      -2.22301965       1.58641647       0.17894067
H        5.31484722      14.96043309       9.98601624       0.06604776       0.46734178       0.21054237       2.03542959      -1.13202339       0.00121495
H       18.76117882      21.52649739      13.60513984       0.43223944      -0.01230452      -0.48035611      -0.30185012       1.52168015      -1.43346127
H       18.77432438      22.29840477      13.21484433       1.05245602      -0.76967236      -0.26418819       0.55908313      -1.48316385       0.48691153
H        5.03597468      11.71823731      13.12901265      -0.69976947       0.44499958       0.43499825      -0.30473505       0.94840960       0.13312553
H        5.68121890      11.97922631      12.68419444      -0.30810829       0.02396843       0.05375626      -1.53078092       0.31390811       1.33605073
H        8.09695850       4.27853478       7.25746421      -0.47029649      -0.44753917      -0.35167803       0.02690260      -0.11120768      -0.69429782
H        8.49588269       4.62230719       6.67616572      -0.39262404      -0.29605183       0.38901184      -0.16709342      -0.22078133       0.67705894
H        3.93503607      12.01522713      14.20561491       0.54593836       0.95088241       0.68063470       3.09880218       1.44202941      -1.68047599
H        4.68562413      11.93929313      13.62414223      -0.24616610      -0.53368256       0.70144603      -3.40238329      -0.34359514       3.60619571
H        8.62141682       3.79074675      14.14630783       0.69151387       0.31832663      -0.28907402      -0.80013912       1.00055225       3.52865495
H        8.57240566       3.75913714      15.11123555       0.01337523      -1.00833878      -0.41721921      -0.69341493      -1.18306037      -5.79996013
H        6.25640233      12.60902340      15.42363890       1.32184164       0.64050492       0.41231650       0.11890253      -1.69286681      -1.53346876
H        6.48198811      11.85969859      15.20062320       0.43791287       0.42948989      -0.61623162      -0.04331984       0.83972997       0.04921398
H       12.34490076      14.32196574      15.43374163      -0.61845028       0.10749314      -0.24708673       0.08356342      -0.18301934       0.28480246
H       12.26020969      13.61163274      15.71020539       1.32799260       1.52392344       1.16830717       1.44086503       0.03017104       0.21362382
H       11.56949133       0.17184359       0.89045125       1.17540951       0.45880175       0.25923188       0.30070945      -3.46016951      -4.73901806
H       11.55323771       0.41905888       1.42230864       2.19784688      -0.91029281       0.62380856       0.60919700       2.60629148       5.63771230
H       20.71771787       4.88611130       5.33695945       0.21638092       0.35114615       1.58739893       2.97416740      -0.12352636      -2.51541687
H       21.40255722       4.74812403       4.77205633       0.78196970       0.93322842       0.78770217      -2.60579668      -0.56316856       3.43552016
H       11.81941942       4.37652905      11.57126878       0.47787460      -0.03617197      -0.21077721      -3.80724790      -1.93621696       3.31719491
H       11.08765595       3.96308427      12.07245601       1.45000314      -0.92148747       0.70773746       4.60094872       1.46351523      -3.42929228
H       13.99686507      20.26099536      11.83546282       0.06225191       0.27837910      -0.94319795      -1.82979688       3.64086353       0.39260781
H       13.40059634      21.01059562      11.85271551       0.49126344       0.66696645       1.85479554       2.50670277      -4.64200996      -0.95905962
H       16.14964964      21.67097145      20.63345972       0.21181221      -0.71229825       1.05855287      -9.27968920      -7.14056826      -9.47431640
H       15.37674914      21.05165681      19.75061429       1.79394826      -1.38113874      -2.01501363       8.25477599       5.90821353      10.70436669
H       21.63040339       8.12532302       1.56653867       0.74142038      -0.73301768       0.27962876      -0.72966926      -4.00487798      -0.19234623
H       21.36013595       7.27548968       1.71396410      -1.31317435       1.20136378       1.50243840       0.66185686       2.58593206       0.16741907
H       11.76493448      21.87916513      15.37501276       0.42639135      -0.57818378       1.55375746       0.66091275       3.65422741       4.49386072
H       11.86849040      22.49762715      16.16516684       0.53028996       0.95083697      -0.16664442       1.36307374      -4.41345698      -4.75346101
H       16.00355178       6.64248145      22.41437473       0.33687850      -0.27045013      -0.17822985      -0.70805517       0.15428547       0.79542746
H       16.41127608       6.96962596      22.99072101      -1.30773117       0.47765883      -0.29617449      -0.10464819      -0.80518925      -1.10662011
H        7.09475259      11.69774705      14.10715125       0.03972356      -1.80016266       0.02657983       1.38320250       0.18309360       0.28999706
H        7.80242676      12.01461076      13.86719059      -0.39316734      -1.10447131       0.63749692      -0.71538161       0.15875134      -0.51781857
H       17.66305876       8.95501130      14.26427776       0.54808669       0.09510176      -0.47502783      -0.34096610      -0.47699897       0.68270978
H       17.74893672       9.59497974      14.73472849       0.63660624      -0.76114736       0.42350789      -0.10523290      -1.28201800      -0.72172365
H       12.34108770      13.75026135      10.74756450       1.12951739      -0.42630688       1.41912142      -1.42244866       0.68398130       1.40982054
H       11.84258929      13.47701178      11.38484423       0.32634597      -0.20906998      -0.55265785       2.05463322       0.82660794      -1.15481503
H       12.70798259       7.09781572       5.33813788       1.63081319       0.60344024      -0.08406098      -1.95930792       0.86435045      -0.33803264
H       13.22915585       6.64806546       5.24366877      -0.02340925      -0.67467423       0.74223605       2.93647294      -1.23920483       0.42928805
H       20.96499285      -2.33145544       2.91883994      -0.32324295      -1.44134420       0.12018460       0.47864001       0.67830540      -0.48146432
H       21.59030855      -2.08233286       2.63783317       0.00677444      -0.01895791       0.37003946       1.67127312       1.15867326       0.01535077
H        1.24031125      22.53451225       7.19893226       0.75267663       0.34563082       0.80196448      -2.87847518       0.47234190      -0.02962386
H        0.38598002      22.60594686       6.95307347       1.39403590       0.69280467      -0.39140759       2.08326206      -0.75303488       1.65410483
H       12.23000199      20.41742670      12.49655322       0.56851667       0.47946879      -0.60937111      -1.04688217      -3.71787106      -2.34062512
H       11.87659018      19.86208625      11.78961198       0.32712596      -0.65783068       1.29055054       2.75101894       2.64426131       4.13337555
H        2.06799883      18.87580405       9.92707224       0.65029293      -1.05941106      -0.32228179      -0.26657449      -0.35916931       0.22015624
H        2.31302651      18.27509148      10.43205394       0.62697052       0.22934938       0.38239092      -0.00481630       0.12766466      -0.06513593
H       21.94243626      13.40590878      10.90508576       0.45817557      -0.12774867      -0.54492953      -1.13183558      -0.65278998       5.44280250
H       21.82709583      13.37771769      11.87180339       0.86663469       0.85188847      -0.52069075       1.08402786       0.13445110      -5.93024054
H       16.30615316       4.67927388      12.96452302       1.40950936      -0.12149421       0.61593647      -0.51215151      -0.32398757       0.28051155
H       16.01535617       5.15521498      13.53125663      -0.35194940      -0.67408295      -1.33542465       0.72606859      -0.24197367      -1.75030994
H        9.87298328      17.20682763       9.45979976       0.77106443       0.48732703      -1.17869307       0.95911042       2.15619048       1.28590960
H       10.34299835      17.73224235       9.97017234      -0.59789507       0.08224428      -0.24227006      -0.85589874      -2.49523704      -1.90757850
H        1.89103017      17.52081308      19.45362049      -0.30145051       0.92574290       1.08589411      -1.71401921       0.40080527      -2.13487401
H        1.15339244      17.47314022      19.04222084       0.69921518      -1.03708937      -0.56244537       1.64849012       0.13917046       1.38387355
H        7.60647054       7.68901524      11.29272452      -0.35823658       0.10699075      -0.78886822      -0.49761661      -0.36864267      -2.51363993
H        7.10951951       7.80755814      10.54174706       0.99109455      -1.59633834      -0.56277456       1.47010924      -0.34856730       2.66317672
H       -0.41965853      14.94245833      12.86009645       0.06988654      -1.10445670      -0.03041133       0.59936965      -0.58703001      -1.24143324
H       -0.26110145      14.58928230      12.15955222      -0.08249344       0.54510749       0.23900714      -0.09630306      -0.01939873       0.55542797
H       21.50943736      -0.33545555      14.38833416       0.09684110      -0.99325972      -0.48728225       1.51444299      -0.10334277       0.81654971
H       21.01806092      -0.57809509      13.95006153       0.14159713      -0.57050116      -0.09439605      -2.21968110      -0.54113107      -1.23517862
H       19.03093486      12.73450521      14.74709209      -0.52926202      -0.46604889      -0.28475518      -2.09337304       1.30672267      -0.94997774
H       18.22427918      13.01361552      14.68644915      -0.39857153      -0.32483177      -0.42719722       2.36867810      -0.82356950       0.22521067
H       21.96610328      13.23797715       8.26238395      -0.12575303       0.47952318       0.10233036      -0.23340227       1.16440245      -0.17052795
H       21.74874857      12.84643487       8.84356988      -0.92318283       0.02179138       0.26453989      -0.58841115      -0.67963519       0.33224010
H        1.55904773      13.93331235      10.71548581      -0.27663573      -0.60019404       0.57451313      -0.80353083      -2.63866590      -4.91651026
H        1.43937823      13.52144549       9.85421130      -0.40349239       0.10698850      -0.22003864      -0.07973880       2.54788685       4.36283157
H       13.42840877      12.70953445      12.15544672       0.53197695      -0.49404434      -0.27646524      -1.00720835       0.28453943       1.44295140
H       13.03586793      13.04214444      12.78983768      -0.42811083      -0.44857507      -0.61872057       0.87388957      -0.38338616      -1.47846998
H       13.82329816       2.06828964      15.24416919      -0.52178770      -0.25707686       0.03803464       0.30777056       0.13311466      -0.96734997
H       14.10202221       1.76476028      15.88106413       0.13331801       0.26711050       1.28555716      -0.14441199       0.28074434       0.81836921
H       18.47580913      10.26813063      11.65303611       0.47397285      -0.67846751       0.65100282       0.06494835       5.55276962       6.06403143
H       18.79769003      11.08756035      12.29961362      -0.69718813      -0.15406149      -0.32523072      -1.70425363      -6.82421504      -5.21034706
H        3.92718775      14.29359170      15.16270175       0.17924704      -0.53782007       0.33940105      -0.49621529       1.56872049      -0.87296711
H        3.18593754      14.55372616      14.97609310      -0.37822075      -0.40651426       1.00830004       0.59783785      -1.03335903       0.17440181
H       -0.80194676       9.26481413      16.46131979      -0.00066338       1.33735690       0.67573102       1.42885784      -0.20226702       0.44519899
H       -0.27945467       8.74215585      16.75683154      -0.56403308       0.21760803      -0.10125344      -0.38165102      -1.09956573       0.00381208
H        9.33321801       8.32394120      22.43571533      -0.07601316      -0.48019449       0.14620449      -1.63586014      -2.47831437      -1.46702454
H        8.84094078       7.54634127      22.25405880       2.22136416      -1.08516255       0.36271246       2.20173387       2.95234586       0.91348888
H       13.02418397      -1.53643662      13.36010413      -0.12174320       0.45286763       1.02184861       0.68748653       0.27320014       0.19848373
H       12.66470566      -1.70752839      14.01777602       0.02430874      -1.21191824       0.04720039      -0.17681745      -0.34901376      -0.29340571
H       19.51985701       9.73992061      15.71953265      -0.86957040       0.60815674       0.52070566      -2.04945196      -2.13468977      -0.81615935
H       18.89864369       9.33292724      15.28297527       0.22174736      -0.00291962       0.77372124       1.15230769       1.05950907       0.35196888
H        8.33213929      13.22304390       9.63407138       0.26119503       0.25684597       0.21955018      -0.62776141      -0.13238043      -0.45118030
H        8.69484805      13.25693002       8.99438882       0.36102158       0.68319730      -0.17351822       2.01599698       1.42944134      -0.35595365
H        8.63263361      10.43203071      13.25672012       0.06636541       1.03182404      -0.66034121       1.39921329       3.47630812       0.07124530
H        8.93799331      11.30702070      13.26946343       0.54212670       0.60521061      -0.39963486      -2.75041490      -4.39402520      -0.84109055
H       -0.07785195      24.56761387      16.47121760      -0.49602367       1.77299938       0.17977617      -4.10012570      -1.23746691      -2.80703194
H       -0.79151738      24.37544686      15.93710573      -1.41560361       0.15179502      -0.63263843       2.77248910       0.40093225       3.26504713
H       15.32768147      12.77474571       8.10390354      -0.73032771      -0.33072852      -0.95159485       3.77146274       3.86636578       4.98345857
H       15.88511587      13.25150138       8.83652096      -0.72792576      -0.66366204       0.31438140      -3.89535915      -3.83196600      -4.41722814
H       11.73456091      12.86208388      11.66607111      -0.06039462       0.34748234      -0.78590923       1.43594163      -0.31815077       1.56437196
H       12.39338242      12.83160252      12.23332457      -0.24410212       0.99453957       0.28741541      -1.14122003      -0.48726521      -1.37476602
H        6.44970534       6.73379459      12.03199527      -0.21373071      -0.11513076      -0.00396276      -0.11028839       0.22632232      -0.61897923
H        6.02918536       7.23671084      11.52562120      -0.04109213       0.28857536       0.52626819       0.46662282       0.10056444       0.91075497
O       11.80202968       0.98517244      17.09212133      -1.35816242      -0.64444758       0.73644304      -1.53070683       0.04621831       4.13209933
O       11.10607059       0.92502045      18.13793798      -1.85832245       1.08443845       0.36313999       1.76302232       0.34785708      -2.43214292
O        1.15825791      21.83799131       8.51493394       1.75447552      -0.13399861       4.53222259      12.04106424      -5.08693025      -2.83419579
O        0.08583901      22.29497249       8.83177537      -2.29673320       2.81495814      -1.83776746     -11.40100320       4.77153157       3.35985840
O       10.07769809      11.46609496      11.88483032       4.41377836      -0.72715925       0.02147971      -0.83824430      -1.83501974      10.07641453
O        9.96085521      11.02990190      13.16100991       0.19107068      -2.11223147      -2.35063654      -0.53640907       1.73055591      -8.89850147
O       15.09409656      19.91823326      -0.15399473       1.38251549       3.82333099      -4.34685802      -2.98482198       5.19496723      -3.60617992
O       15.63851370      18.80654518       0.59273647       4.37977239      -5.16372171       0.72145889       2.80680105      -5.21261764       2.99512359
O       12.77733851      13.97956163      16.54298883      -3.81560573      -1.60177535       1.63663773       0.68854410      -1.62454848       0.27727894
O       12.48844988      14.96357837      17.21041213      -2.05942821       2.88471045       1.02365210       0.42099750       2.48783412      -0.55643914
O       10.21975570      21.33783006      21.72071969      -3.54995022      -0.72830458       4.48905767       0.16939477      -2.31004032      -1.56722299
O       11.16582788      22.29166103      22.12839501       2.33911821       0.52808293       0.71294276      -0.30910221       2.72225389       1.39732045
O        9.66677681       9.12254907      11.59013143      -0.74103566       1.48004432       0.18598003       0.17708749       0.18787485      -4.94208281
O        9.35539980       9.43195153      10.36091233      -2.05626083       0.05539961      -2.73952952       0.76300522       0.70490673       4.78120653
O       17.77848506      17.32006953       5.35216016      -0.30284270      -2.70331503      -1.90791564      -0.14349783      -4.89250415       9.76938776
O       17.85155264      17.92708271       4.26131660       2.52142953       2.10502459      -0.39430437      -0.24608492       5.30196653      -9.29630383
O        8.70704897       4.57705833      21.78547379      -0.78815456      -1.53205527      -1.08431070      -0.92762803       0.01802188      -1.23197543
O        8.10480748       3.49404760      22.09168661      -1.31176256      -1.11746779      -0.17362885      -0.03643464      -1.50104607       0.30889841
O       21.75930639      14.41546380       0.97920417      -3.79817156       1.74209227      -0.83108868      -5.74522761      -2.30167351       8.73363980
O       22.55637215      14.67517747       0.04719180       1.07911330      -1.43159083       1.79762687       6.29153098       1.24323067      -6.95900833
O       16.63625803       7.74152098       3.93788799      -2.06009943       0.20677967      -1.21552931     -14.43788020      10.82169962      -0.66481450
O       15.43108317       8.57310748       3.85025707      -2.44696206       4.36175903      -2.16927598      14.97482142      -9.71064992       0.81916288
O        5.74265740      14.61812782      21.90606135       3.12505834       3.59782881       4.26271656      -5.09673954       5.30513151       5.46864576
O        6.62512605      13.91385107      21.24488131      -0.01915173      -1.79478789      -4.45804726       5.09975851      -2.85689243      -5.17190840
O       12.37823947      16.24700939      15.28336539       2.44909343      -3.24271527      -0.80458895      -2.01924737       1.03512421      -2.14134736
O       11.19947708      16.63744215      14.99733727      -1.11191931       3.32332642       0.29779129       1.79600949      -0.49679115       1.43955772
O       18.98940630       3.67284926      10.88013260       1.85885094      -3.56405311       1.12854406      -6.22247094       7.41185908      -3.79892560
O       19.59155186       2.84927310      11.29638703      -4.84592658       6.19431330       0.33619174       5.61885726      -7.99513004       3.56719445
O       21.73233394      12.66114901      21.50082234      -1.95814080       0.86170597       3.21572545      -8.30769644      -0.68986913     -12.44435850
O       22.41390803      12.61055240      22.48516976      -0.44668792       1.80813004      -1.30341901       8.16233421      -0.00766245      11.33360477
O        5.88177270      15.08389959      13.98654825      -0.02057610       2.01882277       1.30381708      -3.32901014      -0.43257386       4.91388591
O        5.08458080      14.93987367      14.99861164      -3.57203594       0.50964627      -1.93004995       3.00103706       0.78568687      -4.86073441
O        5.65052480      22.27014824       0.36056249      -0.92380192       1.64018829      -4.39491575      -1.49511087      -1.61330711      11.15995774
O        5.58374167      22.19278717       2.15302983      -0.18164029       0.62036404       6.29330912       0.68880138       0.52308704     -10.81467115
O       18.39186849       8.32885620      11.12874377      -3.20475762       2.79460973      -2.74432323      -0.31555177       1.58506931       2.80402556
O       17.72190334       9.35755984      11.45163443      -2.13994287       3.63547425      -1.24346783       0.69804103      -2.52828838      -2.24826055
O        8.10707178      16.78877586       0.88526718       2.54437329      -2.11490037      -2.92780900      -0.32675033      -2.41405868     -13.45632564
O        8.02845818      17.03322681       2.09653801       1.39917468      -0.59512740      -4.02791965       1.29240177       2.41290467      11.07145906
O       15.43216054       0.34252824       8.72176435      -2.47848906      -0.74669769       0.43166183       0.67812114       0.40916269      -0.73789132
O       14.10764140      -0.31575793       9.07292931      -2.18447301      -1.71914323       1.88981760      -1.02575925       0.57389160       1.24854710
O        9.91550521      11.54797873      15.48830586      -1.71211938      -0.66512492      -4.61752280      -1.58417426       1.43465251      -1.63341623
O       10.56413099      10.72677273      16.11954307      -1.41627211       1.79176517       3.60681314       0.43373902       0.36104704       1.30024596
O       16.50058795      13.28022169      13.92005453       0.55778609       1.04898224      -3.23167576      -0.05913418      -1.64321736       0.44969549
O       16.24643350      13.80139992      15.07559337       1.96044868       3.27106377      -0.64046862       1.74225150      -2.48068576      -1.54531564
O       15.46466422       3.82088814      18.47116879       4.02176489      -3.11132635      -7.97938551      -0.00141581       0.75644176      -1.01716673
O       15.46250784       4.20900959      18.69048078      -5.98341834       7.47364732       7.97017757       0.56664047      -0.73307305      -0.00459103
O       15.70504771       7.57981446      12.62741062      -1.61621275       0.30393104      -1.83343587       1.97092705      -4.55215800      -2.78856971
O       16.10276044       6.57925478      11.86399919      -0.69929254       0.47578182      -0.39229733      -2.15340202       4.25353301       3.47293056
O        7.38829131      14.94229296      17.62776066      -0.27755505       0.36531840      -0.21928848     -19.78533491       5.27094189      -5.96030412
O        6.00689706      15.35303414      17.07205655      -0.94954580      -1.84776930       0.29117145      18.98062462      -6.09021729       6.79976691
O       16.32699630       5.03003973      15.73225718       3.69109467       2.03133880      -0.76250053       0.65884067      -0.93545125      -2.15514968
O       15.60605992       5.01900941      16.70106019       3.30344072       0.79539614       1.04724074       0.08171203       1.00772305       1.16456916
O       14.02931536       9.14126086      15.02025694       2.82697219       1.66933026       0.88583782      -4.02487882       2.74510185       5.36576176
O       13.10907718       9.62494005      15.84837272      -2.41321004      -1.73518042       2.90077423       3.21742594      -2.48678484      -4.52431843
O        8.64281835      10.96657827      16.78725682       4.81363321       0.83594277       1.12813611      -2.20161681      -5.38978309       0.39847817
O        8.21504901       9.70504015      16.83726178      -2.71475934       2.51970436       2.77372998       0.90749935       5.80581764       0.57293746
O       15.47028529      20.24576930       5.57561420      -0.58623068       0.23288661       1.66121144       8.72255869       2.43495195      -3.77519771
O       14.35813681      19.95065456       6.15133395      -1.83799657       0.00790244      -1.16890051      -9.05498410      -2.26569802       4.06554994
O       21.76690340      17.23416723      21.30143725       2.23013915      -0.67483097       3.46488417       2.28135408      -1.62396756       7.98870135
O       22.33954462      16.74691534      22.82587193      -2.35642318       2.26704958      -1.94348138      -1.71259511       2.75076446      -6.78055416
O       16.62381789       8.21225432      15.40359754      -2.04269784       2.67886702      -0.94584287      -5.58678076       3.25066540      -0.73067582
O       17.66526808       7.76610700      15.62625240       1.52029632      -2.12452338      -1.28714481       5.56287960      -3.55351656       1.10990376
O        5.60709560      12.74595006       8.43238349       1.45464595      -0.11041618       3.77206977       2.55291666       9.61916559      -0.90688363
O        5.87741589      14.05721883       8.15373276      -1.10603785      -1.51781639      -0.78791944      -2.06357083      -9.54404519       1.70111780
O        7.08276921       8.07293470      18.02619225      -2.63062984      -1.19683900      -0.53576956      -0.90401575      -0.06446602       0.12973281
O        7.00696854       8.13064250      19.27917466       0.79069011      -1.45333751      -0.48956896       0.95133043      -0.37569037       1.07126855
O        3.82962403       7.19546014       8.57769248      -1.74152275       1.16985256       1.13674801      -2.37510732      -1.63618697       2.71778940
O        3.51219441       6.11733439       9.15252265       2.17229887      -0.14195820      -1.07213865       2.20593562       1.90519139      -1.64282109
O       22.29516774      10.12437686       0.09426564       0.94111191       2.68121834      -1.22305726      11.21435466       3.38553583      -8.06142770
O       21.37346370       9.93073041       0.78316826      -0.55956196      -2.76190024      -0.97728309     -11.00109632      -4.24568626       8.07957220
O       13.41518665      16.15320362      13.04581111       3.21230556      -3.51822028      -0.97742277       1.02613980       2.07238637       4.43983139
O       14.13610814      16.78751961      13.93427187      -0.60932346      -1.94081360       0.84974829      -1.90202391      -1.96336325      -3.96519930
O        9.92312581      12.87276433       7.46480101      -4.50500817       0.77292297      -1.54169044       1.42549953       0.68224883      -2.53139254
O        9.95947087      13.75172178       6.57032170       3.40894701       0.91097578      -1.12968572      -0.95855835      -0.68886223       0.54960799
O        6.31158038       9.02075466       9.45982707      -0.48743091      -0.43920191       2.19833290      -1.77833007       1.20781512      -4.33391688
O        5.98395493       8.90840409       8.22076520       4.72444751      -0.68799736      -1.88524569       1.21646242      -1.08408942       5.26824401
O       17.15877881      16.10616499       8.47537224      -2.13140832       2.34095737       1.76532715       4.95275314      -9.73024877       0.54566730
O       16.62652646      17.26201977       8.68675589      -0.24698571      -0.59261584      -3.46570081      -5.53113522       8.99366662       2.90525938
O        5.44694914       4.99114383       0.33571300       3.37892631       0.89596420       5.81589276       1.76109251       0.45842510       1.27072006
O        6.54011069       5.20492745       1.33545469      -1.42325232      -0.65935511      -3.31654513      -0.61064286       0.58926005      -1.17206657
O       12.19901967       4.94104598       4.98089161      -3.62610107      -2.16208789       0.97596835       6.77813374      -8.16882977       4.45852472
O       13.18049057       3.98886315       5.19503909       1.97726624      -4.60510880      -2.04038043      -6.88442013       8.40638789      -1.70454791
O       10.95334549       5.37682408       9.90843123      -1.18937005       1.22477953       1.66236614       4.60481861      -0.90339355     -12.73938932
O       11.59929310       5.33872164       8.62767286       1.02981432      -3.06097300      -1.24194060      -7.55867019       0.98393555      14.40331431
O        6.58619514      12.24558530       9.34168845      -1.15747063      -1.18319851      -1.47284290      -0.96980704      -1.39923337      -1.32215617
O        7.48225209      12.15830988      10.13981067      -0.67265285      -2.65387908      -2.54848326      -0.29987677       2.00747998      -0.48702448
O        7.71723124      12.30244368       6.33268340      -1.12537001       2.39596906       2.51932881      -0.21068619      -0.54364314       1.22029162
O        7.22597713      12.32586280       5.24778386       4.58472432      -1.16017109      -0.86515892       0.20121848       0.30595693      -2.02682279
O        8.67289789       0.48477408       8.39997948       1.34974537      -0.20818110      -4.71936174      -0.05019785      -2.66376100      14.87654811
O        8.70033891       0.61406660       7.36905219       1.57480447       1.21863479       2.65494013       1.01226907       2.03068711     -15.00632515
O       22.10801329      14.55415625      15.91155525       0.79104111      -0.84042647       1.06831464       0.89029795      -2.11115649      -1.94772422
O       21.72256498      13.35712558      16.00728593      -0.47699266      -2.35827299      -2.15790360      -1.17713503       1.12026592       1.38261020
O       10.62463290      15.99826630       9.08061972      -0.72906425      -0.96117083       1.82039340       4.34974947      -1.69939895       1.66306731
O       11.82432531      15.44778909       9.09914407      -2.17171180      -2.69761439       1.22262847      -4.48525177       1.57381799      -0.22778007
O       12.39931817      21.50670512       1.45412948      -2.59794349      -2.40049881      -0.92540594       1.26373993       0.16481864       3.30688634
O       12.91777656      21.70894202       2.69540880      -0.41065425      -1.20362160       2.59961752      -1.72854329       0.44774107      -1.13162149
O        9.47538172      -0.05533970      13.70426236       1.72499464      -0.12939811       1.29220111      -0.13595843       0.36530035       2.17023792
O        8.89118128       1.02541263      13.65574477      -0.94959710      -1.32629504       1.82680125      -0.31704514      -0.11084216      -1.45462569
O       11.71185097       7.79075953      14.71217185      -3.72640259       3.42714580      -4.53590468       2.55742163      -0.53477479       0.49315276
O       12.80328736       7.00162741      15.57969195       5.84726151      -3.31760194       1.51575122      -2.50288532       0.62997082      -0.41472783
