192
Lattice="12.417126637745588 0.0 0.0 0.0 12.417126637745588 0.0 0.0 0.0 12.417126637745588" Properties=species:S:1:pos:R:3 connectivity="_JSON [[0, 1, null], [0, 2, null], [3, 4, null], [3, 5, null], [6, 7, null], [6, 8, null], [9, 10, null], [9, 11, null], [12, 13, null], [12, 14, null], [15, 16, null], [15, 17, null], [18, 19, null], [18, 20, null], [21, 22, null], [21, 23, null], [24, 25, null], [24, 26, null], [27, 28, null], [27, 29, null], [30, 31, null], [30, 32, null], [33, 34, null], [33, 35, null], [36, 37, null], [36, 38, null], [39, 40, null], [39, 41, null], [42, 43, null], [42, 44, null], [45, 46, null], [45, 47, null], [48, 49, null], [48, 50, null], [51, 52, null], [51, 53, null], [54, 55, null], [54, 56, null], [57, 58, null], [57, 59, null], [60, 61, null], [60, 62, null], [63, 64, null], [63, 65, null], [66, 67, null], [66, 68, null], [69, 70, null], [69, 71, null], [72, 73, null], [72, 74, null], [75, 76, null], [75, 77, null], [78, 79, null], [78, 80, null], [81, 82, null], [81, 83, null], [84, 85, null], [84, 86, null], [87, 88, null], [87, 89, null], [90, 91, null], [90, 92, null], [93, 94, null], [93, 95, null], [96, 97, null], [96, 98, null], [99, 100, null], [99, 101, null], [102, 103, null], [102, 104, null], [105, 106, null], [105, 107, null], [108, 109, null], [108, 110, null], [111, 112, null], [111, 113, null], [114, 115, null], [114, 116, null], [117, 118, null], [117, 119, null], [120, 121, null], [120, 122, null], [123, 124, null], [123, 125, null], [126, 127, null], [126, 128, null], [129, 130, null], [129, 131, null], [132, 133, null], [132, 134, null], [135, 136, null], [135, 137, null], [138, 139, null], [138, 140, null], [141, 142, null], [141, 143, null], [144, 145, null], [144, 146, null], [147, 148, null], [147, 149, null], [150, 151, null], [150, 152, null], [153, 154, null], [153, 155, null], [156, 157, null], [156, 158, null], [159, 160, null], [159, 161, null], [162, 163, null], [162, 164, null], [165, 166, null], [165, 167, null], [168, 169, null], [168, 170, null], [171, 172, null], [171, 173, null], [174, 175, null], [174, 176, null], [177, 178, null], [177, 179, null], [180, 181, null], [180, 182, null], [183, 184, null], [183, 185, null], [186, 187, null], [186, 188, null], [186, 189, null], [190, 191, null]]" pbc="T T T"
O        4.34100000       4.56300000       8.64300000
H        4.18200000       3.78000000       8.11300000
H        3.92400000       4.37100000       9.48500000
O        6.34400000       7.41400000      12.41800000
H        6.50800000       7.86000000      11.58500000
H        6.94800000       6.67000000      12.41500000
O        1.19700000      11.10300000       1.62100000
H        0.88600000      11.99800000       1.76500000
H        1.33800000      10.75400000       2.50300000
O        7.58900000       4.75200000      10.23500000
H        8.49300000       5.05600000      10.33200000
H        7.65500000       3.97900000       9.67100000
O        1.71300000       6.08700000      10.01400000
H        1.64600000       6.57700000      10.83500000
H        0.95900000       5.49400000      10.02700000
O        0.97600000       3.54200000       7.24200000
H        0.44600000       3.84600000       6.50300000
H        1.78700000       3.22500000       6.84100000
O        6.81000000       1.64000000       9.19500000
H        5.98800000       1.99400000       9.54000000
H        6.53800000       1.03400000       8.50300000
O        0.70400000       1.59600000      12.44200000
H        1.29200000       1.11000000      11.86100000
H        0.30700000       2.26300000      11.87800000
O        4.17100000       8.48500000      12.20600000
H        3.49000000       7.83700000      12.39500000
H        4.38400000       8.34800000      11.28200000
O        0.12800000      10.69900000       8.33700000
H       -0.00700000      10.45100000       7.42100000
H        0.03000000       9.87900000       8.82400000
O        1.79900000       1.96100000       5.04600000
H        2.28600000       1.41500000       5.66600000
H        2.10600000       1.67500000       4.18400000
O        7.69800000      12.40800000       0.63800000
H        8.56700000      12.09500000       0.89500000
H        7.26600000      11.63800000       0.26500000
O        8.36800000       3.42800000      11.80800000
H        8.46300000       4.16200000      12.41800000
H        8.00200000       2.72000000      12.34100000
O       10.24600000       7.32500000       7.76100000
H       10.14000000       8.09400000       7.19900000
H        9.57600000       7.42900000       8.43900000
O        5.64000000      12.39700000      10.80000000
H        6.23100000      11.64500000      10.74100000
H        5.17600000      12.40400000       9.96100000
O       12.31600000       6.43100000       1.12100000
H       11.44100000       6.70100000       1.40600000
H       12.40000000       6.78500000       0.23400000
O        9.67900000      11.23300000       5.28100000
H        9.14000000      11.62400000       5.97000000
H       10.24900000      10.61600000       5.74300000
O        9.22900000       5.49400000       3.55700000
H        9.70900000       6.29800000       3.35000000
H        9.83300000       4.78700000       3.32500000
O        5.29500000      11.42600000       7.65900000
H        5.40900000      10.85400000       8.41900000
H        4.55000000      11.98400000       7.88800000
O       10.33500000       8.56800000       2.28000000
H        9.72000000       8.80600000       2.97500000
H       10.93700000       9.31200000       2.22600000
O        5.30300000      12.43600000       1.23500000
H        5.93800000      12.28800000       1.93800000
H        4.45200000      12.43200000       1.67600000
O        4.13100000       7.33200000       2.83500000
H        4.72700000       7.94100000       3.27400000
H        3.54700000       7.02400000       3.53000000
O       10.70500000       1.59300000       6.24500000
H       10.57000000       0.85800000       5.64400000
H       11.42600000       2.09100000       5.85800000
O        4.24600000      12.10800000       3.83500000
H        4.19400000      11.97300000       4.78300000
H        3.35700000      12.36100000       3.58000000
O        9.08400000       7.79600000       0.64700000
H        8.52800000       8.20100000      -0.02100000
H        9.73500000       7.29900000       0.14800000
O        1.87800000       8.63100000       9.71000000
H        2.62300000       8.64500000       9.10700000
H        1.22200000       8.08800000       9.26900000
O       10.77900000       3.89600000       8.27300000
H       10.10700000       3.52700000       8.84800000
H       10.44700000       3.74300000       7.38700000
O        5.87900000       5.20500000       1.90600000
H        6.33600000       4.84900000       1.14200000
H        5.19600000       4.56000000       2.09900000
O        1.94900000       9.17400000       0.77200000
H        2.20900000       9.62400000      -0.03400000
H        1.42300000       8.43000000       0.47300000
O        8.30800000      12.37400000      10.57000000
H        8.03400000      12.28700000       9.65500000
H        8.82100000      11.58300000      10.74300000
O        3.08800000      10.07600000       4.96100000
H        3.12100000      10.21900000       4.01300000
H        2.86100000       9.14900000       5.05600000
O        2.40800000       5.49300000       8.01300000
H        2.73300000       5.17800000       7.16800000
H        1.46200000       5.58200000       7.88800000
O       11.89100000       4.02500000       3.47900000
H       11.45000000       3.58700000       4.20900000
H       12.42000000       3.33700000       3.07100000
O       10.81700000       6.02300000      10.49700000
H       10.39500000       5.64800000      11.27200000
H       11.07100000       5.26400000       9.97000000
O       11.33400000       3.72700000       0.38100000
H       11.47500000       3.10500000       1.09700000
H       11.18600000       4.56700000       0.81900000
O        3.41900000       7.81500000       6.97000000
H        2.53200000       7.53800000       7.20800000
H        3.94400000       7.01600000       7.03400000
O       -0.01800000      10.14400000      11.48200000
H        0.06500000      10.10600000      12.43700000
H        0.39300000       9.33500000      11.17300000
O        1.87600000       3.89800000      12.44000000
H        2.40000000       3.09500000      12.41400000
H        1.58200000       4.02100000      11.53500000
O       12.17100000      -0.06300000      10.51400000
H       11.71100000       0.48200000      11.15500000
H       12.41900000       0.54600000       9.81600000
O        0.95000000       7.01000000       4.52300000
H        1.15100000       7.77700000       5.06200000
H        1.39200000       6.28400000       4.96500000
O        8.83900000       2.60100000       5.26400000
H        9.55500000       2.55000000       4.62900000
H        8.45200000       1.72400000       5.26200000
O        2.08000000       5.10900000       2.66800000
H        1.87000000       5.97100000       2.30300000
H        2.89400000       4.85500000       2.23000000
O        3.62000000       0.63500000      11.37300000
H        3.82400000      -0.03900000      12.02200000
H        3.75700000       1.46400000      11.83600000
O       11.55200000       8.31700000       4.09300000
H       11.25800000       7.61900000       4.68100000
H       11.80300000       9.03400000       4.67800000
O        1.33600000       8.07900000       2.64000000
H        2.06800000       8.63900000       2.90200000
H        0.60600000       8.68600000       2.50200000
O        4.13000000       5.58300000      12.42200000
H        3.25600000       5.67800000      12.03900000
H        4.72900000       5.68600000      11.68000000
O        1.06800000      11.41700000       4.59700000
H        1.70100000      11.76200000       5.22900000
H        0.26000000      11.31000000       5.10200000
O       10.07400000       2.05400000      11.99100000
H        9.71200000       1.21500000      11.70100000
H       10.28100000       2.52000000      11.17900000
O       10.74300000      11.27900000       3.35500000
H        9.85900000      11.01000000       3.09800000
H       11.15100000      11.57300000       2.53800000
O        0.44700000       2.76400000       9.74500000
H       -0.01400000       3.52300000      10.10600000
H       -0.02500000       2.55900000       8.93600000
O        8.92400000       1.03200000       3.15800000
H        8.20900000       1.32500000       2.58900000
H        9.59400000       0.70800000       2.55400000
O        2.23800000      10.40300000       7.80500000
H        2.39100000       9.75500000       7.11500000
H        2.05700000      11.21800000       7.33400000
O        2.69100000       2.45600000       9.34300000
H        2.45500000       1.96500000      10.13100000
H        3.34400000       1.90700000       8.90500000
O        6.72400000      10.06600000       1.70300000
H        6.71000000       9.49700000       2.47500000
H        7.10800000       9.52400000       1.01200000
O       12.42300000       1.13300000       3.17300000
H       11.70300000       0.89900000       3.76100000
H       11.99800000       1.30900000       2.33200000
O        5.97000000       7.35000000       9.51300000
H        6.44100000       6.85800000       8.83900000
H        5.34000000       7.88300000       9.02500000
O        9.84300000       1.11600000       9.49800000
H       10.25700000       0.25100000       9.47400000
H        9.57500000       1.27900000       8.59200000
O        4.18700000      10.25000000       1.72400000
H        4.71400000      10.41800000       2.50700000
H        3.85900000       9.35700000       1.84300000
O        5.50600000       3.30400000      11.46200000
H        5.61000000       3.04700000      12.38000000
H        4.56200000       3.42900000      11.35300000
O        7.33300000      10.77300000       4.29300000
H        7.72100000      11.64900000       4.29200000
H        8.05900000      10.18800000       4.06900000
O        8.16500000       9.35900000       8.94500000
H        8.57000000       9.51500000       8.09000000
H        8.90500000       9.27200000       9.54900000
O        8.00700000       2.59600000       7.30400000
H        8.28000000       3.45500000       7.62900000
H        7.23700000       2.77800000       6.76200000
O        6.04900000       2.57500000       3.51100000
H        6.57600000       2.35100000       4.30200000
H        6.58800000       3.01700000       2.82900000
H        5.25600000       3.09700000       3.74000000
O       12.26300000       0.15400000       6.85700000
H       12.41800000       0.76100000       7.59000000
