192
Lattice="12.41712663774559 0.0 0.0 0.0 12.41712663774559 0.0 0.0 0.0 12.41712663774559" Properties=species:S:1:pos:R:3 connectivity="_JSON [[0, 1, null], [0, 2, null], [3, 4, null], [3, 5, null], [6, 7, null], [6, 8, null], [9, 10, null], [9, 11, null], [12, 13, null], [12, 14, null], [15, 16, null], [15, 17, null], [18, 19, null], [18, 20, null], [21, 22, null], [21, 23, null], [24, 25, null], [24, 26, null], [27, 28, null], [27, 29, null], [30, 31, null], [30, 32, null], [33, 34, null], [33, 35, null], [36, 37, null], [36, 38, null], [39, 40, null], [39, 41, null], [42, 43, null], [42, 44, null], [45, 46, null], [45, 47, null], [48, 49, null], [48, 50, null], [51, 52, null], [51, 53, null], [54, 55, null], [54, 56, null], [57, 58, null], [57, 59, null], [60, 61, null], [60, 62, null], [63, 64, null], [63, 65, null], [66, 67, null], [66, 68, null], [69, 70, null], [69, 71, null], [72, 73, null], [72, 74, null], [75, 76, null], [75, 77, null], [78, 79, null], [78, 80, null], [81, 82, null], [81, 83, null], [84, 85, null], [84, 86, null], [87, 88, null], [87, 89, null], [90, 91, null], [90, 92, null], [93, 94, null], [93, 95, null], [96, 97, null], [96, 98, null], [99, 100, null], [99, 101, null], [102, 103, null], [102, 104, null], [105, 106, null], [105, 107, null], [108, 109, null], [108, 110, null], [111, 112, null], [111, 113, null], [114, 115, null], [114, 116, null], [117, 118, null], [117, 119, null], [120, 121, null], [120, 122, null], [123, 124, null], [123, 125, null], [126, 127, null], [126, 128, null], [129, 130, null], [129, 131, null], [132, 133, null], [132, 134, null], [135, 136, null], [135, 137, null], [138, 139, null], [138, 140, null], [141, 142, null], [141, 143, null], [144, 145, null], [144, 146, null], [147, 148, null], [147, 149, null], [150, 151, null], [150, 152, null], [153, 154, null], [153, 155, null], [156, 157, null], [156, 158, null], [159, 160, null], [159, 161, null], [162, 163, null], [162, 164, null], [165, 166, null], [165, 167, null], [168, 169, null], [168, 170, null], [171, 172, null], [171, 173, null], [174, 175, null], [174, 176, null], [177, 178, null], [177, 179, null], [180, 181, null], [180, 182, null], [183, 184, null], [183, 185, null], [186, 187, null], [186, 188, null], [189, 190, null], [189, 191, null]]" pbc="T T T"
O        1.93100000       5.40000000       9.48200000
H        2.77500000       5.03300000       9.75000000
H        1.31100000       5.08400000      10.14100000
O        5.76000000       8.29000000      12.41500000
H        5.56600000       8.44600000      11.49000000
H        6.64200000       7.91200000      12.41600000
O        3.21300000      10.64000000       3.15900000
H        2.89900000      10.69600000       2.25500000
H        3.62800000      11.48800000       3.32200000
O        8.21700000       4.53200000       9.85200000
H        7.58700000       3.81100000       9.81000000
H        8.71600000       4.46200000       9.03600000
O        8.98100000       7.04600000       8.71800000
H        9.81800000       6.59100000       8.61300000
H        9.19000000       7.97000000       8.57200000
O        4.91900000       3.17900000       4.18500000
H        4.64700000       3.09700000       3.26900000
H        5.80300000       3.54600000       4.14100000
O        6.35900000       2.00000000       7.14900000
H        5.73000000       2.60400000       7.54900000
H        7.21700000       2.33500000       7.41600000
O        1.09700000       3.27400000      12.41400000
H        0.58700000       2.47400000      12.27900000
H        0.59300000       3.95700000      11.96800000
O        8.82000000       8.06700000      11.27400000
H        8.78300000       7.53800000      12.07200000
H        8.19000000       7.65400000      10.68200000
O        0.28800000      11.51500000       5.12800000
H       -0.06700000      11.16300000       4.31000000
H       -0.00400000      12.42800000       5.14400000
O        2.52800000       4.32700000       4.57500000
H        1.86100000       4.17700000       3.90300000
H        3.26900000       4.70400000       4.09800000
O        8.19200000      12.41800000       1.75800000
H        8.78100000      12.28400000       2.50300000
H        7.35100000      12.06200000       2.04900000
O        9.32000000       2.23800000      12.27300000
H        9.66300000       3.13200000      12.22400000
H       10.09800000       1.68900000      12.38500000
O        9.23700000       6.44200000       5.63300000
H        8.30900000       6.30600000       5.43100000
H        9.23400000       6.93400000       6.45600000
O        3.90200000      10.16900000      12.23600000
H        4.22900000      10.18400000      11.33500000
H        3.60100000      11.06500000      12.39700000
O       12.41400000       4.31900000       1.63600000
H       11.83000000       3.60500000       1.37400000
H       12.06600000       5.09100000       1.18700000
O        8.43500000      12.00600000       7.56600000
H        8.14900000      11.23700000       8.06100000
H        8.86000000      11.64600000       6.78600000
O        6.84000000       5.38500000       7.07300000
H        7.34600000       6.04400000       7.55100000
H        7.22500000       4.54800000       7.33900000
O        5.89500000      11.49800000       7.76800000
H        5.17600000      10.98300000       7.39800000
H        6.22600000      12.01100000       7.02900000
O        5.74900000      11.18300000       0.46300000
H        5.36300000      11.80900000       1.07700000
H        6.48100000      11.65800000       0.06500000
O        8.45400000      10.43600000       0.05400000
H        9.14000000      10.79500000       0.62000000
H        7.88300000       9.94900000       0.65100000
O        4.40600000       5.00400000       6.48900000
H        4.60500000       4.96300000       7.42500000
H        4.79600000       4.20700000       6.12600000
O       11.10300000       3.39600000       9.36700000
H       11.44500000       2.66000000       8.85700000
H       11.58500000       4.15800000       9.04100000
O        7.46100000       9.73600000       5.27800000
H        7.85300000       9.49600000       6.11900000
H        6.61400000      10.12100000       5.50900000
O       12.22300000       9.74900000       0.79800000
H       11.76400000      10.56200000       0.58100000
H       12.39700000       9.33800000      -0.05100000
O        3.64200000       1.22600000       6.67600000
H        3.82300000       1.48100000       5.76900000
H        4.22200000       0.47900000       6.83500000
O        4.86900000       7.40600000       9.13000000
H        4.37400000       8.22000000       9.23700000
H        4.20100000       6.71700000       9.13200000
O        5.31000000       5.70800000       2.78600000
H        5.49200000       6.44300000       2.19900000
H        5.12800000       4.97200000       2.19900000
O        0.71000000       7.35200000       1.87900000
H        0.03900000       7.56200000       1.22800000
H        1.22100000       6.64600000       1.47800000
O        6.75800000      11.65900000      10.29800000
H        6.76000000      10.88600000       9.73100000
H        6.95600000      12.39000000       9.70900000
O        5.45900000       8.30500000       5.05800000
H        5.21800000       8.09400000       4.15400000
H        5.15100000       7.55400000       5.56900000
O        2.85000000       3.50900000       7.16100000
H        2.41600000       3.03600000       6.44900000
H        2.33500000       4.31000000       7.26600000
O       12.40200000       8.20300000       7.39500000
H       11.68300000       7.81800000       7.89900000
H       12.03200000       8.35000000       6.52300000
O       11.13900000       7.11000000      10.31500000
H       10.85100000       7.22200000      11.22300000
H       11.27400000       6.16500000      10.22200000
O       10.17100000       5.47000000       0.07500000
H       10.24300000       6.21400000       0.67500000
H        9.23300000       5.27500000       0.04500000
O        2.09000000       6.82900000       7.44700000
H        2.95000000       6.41800000       7.34700000
H        2.21800000       7.49000000       8.12900000
O        0.67100000       9.20100000       9.23100000
H        0.21800000      10.00000000       8.95500000
H        0.06800000       8.78600000       9.85000000
O        5.95000000       5.16800000      10.51100000
H        5.97200000       5.32400000       9.56600000
H        6.10900000       6.02900000      10.90100000
O       10.77600000       0.50200000       7.58600000
H       10.86600000       0.14100000       6.70300000
H       11.37700000      -0.01800000       8.12100000
O       -0.00100000       5.13800000       5.90200000
H        0.41600000       5.77000000       6.49100000
H        0.09100000       4.29600000       6.35100000
O        9.75200000       2.63400000       6.92600000
H       10.37300000       2.71200000       6.20000000
H        9.25200000       1.84000000       6.73000000
O        3.05100000       8.09000000       5.92500000
H        2.65700000       8.08300000       5.05000000
H        3.48700000       8.94100000       5.98400000
O        3.43400000       7.08600000      11.85900000
H        4.10900000       6.69200000      12.41400000
H        3.04600000       7.77300000      12.40300000
O        8.35700000       3.79400000       4.57900000
H        9.09400000       4.40300000       4.64700000
H        8.01700000       3.73000000       5.47300000
O        1.27000000       8.78200000       3.45000000
H        2.07900000       8.72700000       2.93900000
H        1.39200000       9.55000000       4.01200000
O        3.69700000       4.53100000      12.41600000
H        2.94300000       4.87700000      11.93600000
H        4.33400000       4.30900000      11.73500000
O        2.34700000      10.78000000       5.59100000
H        2.77900000      11.40100000       6.18000000
H        1.76200000      10.27700000       6.16000000
O        9.13100000       0.02300000      10.01200000
H        9.80000000       0.53200000       9.55200000
H        9.14800000       0.36000000      10.90900000
O        7.31000000       8.36700000       3.55800000
H        7.51100000       7.71500000       2.88500000
H        7.36700000       9.20900000       3.10200000
O        1.28900000       1.74000000       9.48900000
H        1.21500000       2.59900000       9.06900000
H        0.64100000       1.76100000      10.19500000
O        9.87400000       5.99000000       3.30300000
H        9.04700000       6.14100000       2.84200000
H       10.36800000       5.40800000       2.72400000
O        2.66800000      10.42000000       8.72600000
H        2.74400000       9.94000000       9.55300000
H        2.73800000       9.74500000       8.04900000
O        1.14000000       1.30300000       7.08200000
H        1.18300000       0.36300000       7.26400000
H        0.22200000       1.46300000       6.85900000
O        5.14400000       9.92800000       2.24500000
H        5.37000000      10.15600000       3.14900000
H        4.59800000       9.14400000       2.32600000
O       11.46500000       3.54900000       4.35300000
H       12.00900000       4.10600000       3.79400000
H       10.78800000       3.20900000       3.76500000
O        6.70200000       2.44100000      12.40900000
H        6.81300000       3.18600000      11.81500000
H        6.58200000       1.68800000      11.82800000
O        4.45600000       0.75700000      10.19500000
H        4.71400000       0.01500000       9.64500000
H        4.20500000       1.44100000       9.57200000
O       10.20100000       9.60800000       2.14200000
H        9.33600000       9.19600000       2.12200000
H       10.29500000       9.92400000       3.04300000
O        3.40500000       2.17600000      11.50800000
H        2.86000000       1.39300000      11.60200000
H        2.81800000       2.83400000      11.13300000
O        3.36600000       6.91800000       2.57300000
H        3.20000000       6.02700000       2.25800000
H        3.55400000       6.81100000       3.50700000
O       12.05700000      11.80400000      10.47700000
H       12.35100000      10.99500000      10.89900000
H       11.60700000      12.28700000      11.17300000
O       12.14300000       1.53000000       2.72500000
H       11.84300000       0.62500000       2.62300000
H       12.30900000       1.62300000       3.66500000
O        3.48700000       0.50400000       1.65200000
H        4.07900000       1.17100000       1.29900000
H        3.01500000       0.95200000       2.35700000
O        6.92700000       1.52800000       3.36300000
H        6.05500000       1.30900000       3.69600000
H        7.41500000       1.81000000       4.13800000
