18
Lattice="20.386031253352122 0.0 0.0 0.0 20.386031253352122 0.0 0.0 0.0 20.386031253352122" Properties=species:S:1:pos:R:3 connectivity="_JSON [[0, 1, null], [2, 3, null], [4, 5, null], [6, 7, null], [6, 8, null], [9, 10, null], [9, 11, null], [12, 13, null], [12, 14, null], [13, 15, null]]" pbc="T T T"
H        1.64000000       1.54400000      18.51600000
H        1.60900000       1.56700000      19.26000000
O       14.83000000       7.89500000      20.38600000
O       14.75800000       7.49800000      19.26000000
O        0.07300000      15.68700000       4.52600000
H        0.41000000      14.78400000       4.38400000
O       14.81900000       4.78600000      18.06800000
H       14.24400000       5.25400000      18.68000000
H       15.38600000       4.24300000      18.62300000
O        7.38400000       2.29600000      19.88600000
O        6.75800000       1.65400000      18.93600000
H        8.17700000       2.64300000      19.41400000
O        1.72200000       4.56800000      17.09000000
O        2.27200000       5.58100000      16.23000000
H        2.53900000       4.16800000      17.41100000
H        1.45500000       5.98700000      15.91500000
O        1.74100000      18.00700000       0.91600000
H        0.00000000       0.60100000      20.38600000
