200
Lattice="45.490270141329404 0.0 0.0 0.0 45.490270141329404 0.0 0.0 0.0 45.490270141329404" Properties=species:S:1:pos:R:3 connectivity="_JSON [[0, 1, null], [2, 3, null], [4, 5, null], [6, 7, null], [8, 9, null], [10, 11, null], [12, 13, null], [14, 15, null], [16, 17, null], [18, 19, null], [20, 21, null], [22, 23, null], [24, 25, null], [26, 27, null], [28, 29, null], [30, 31, null], [32, 33, null], [34, 35, null], [36, 37, null], [38, 39, null], [40, 41, null], [42, 43, null], [44, 45, null], [46, 47, null], [48, 49, null], [50, 51, null], [52, 53, null], [54, 55, null], [56, 57, null], [58, 59, null], [60, 61, null], [62, 63, null], [64, 65, null], [66, 67, null], [68, 69, null], [70, 71, null], [72, 73, null], [74, 75, null], [76, 77, null], [78, 79, null], [80, 81, null], [82, 83, null], [84, 85, null], [86, 87, null], [88, 89, null], [90, 91, null], [92, 93, null], [94, 95, null], [96, 97, null], [98, 99, null], [100, 101, null], [102, 103, null], [104, 105, null], [106, 107, null], [108, 109, null], [110, 111, null], [112, 113, null], [114, 115, null], [116, 117, null], [118, 119, null], [120, 121, null], [122, 123, null], [124, 125, null], [126, 127, null], [128, 129, null], [130, 131, null], [132, 133, null], [134, 135, null], [136, 137, null], [138, 139, null], [140, 141, null], [142, 143, null], [144, 145, null], [146, 147, null], [148, 149, null], [150, 151, null], [152, 153, null], [154, 155, null], [156, 157, null], [158, 159, null], [160, 161, null], [162, 163, null], [164, 165, null], [166, 167, null], [168, 169, null], [170, 171, null], [172, 173, null], [174, 175, null], [176, 177, null], [178, 179, null], [180, 181, null], [182, 183, null], [184, 185, null], [186, 187, null], [188, 189, null], [190, 191, null], [192, 193, null], [194, 195, null], [196, 197, null], [198, 199, null]]" pbc="T T T"
H        0.05500000      26.53400000      21.26900000
H        0.29900000      26.68300000      20.58100000
H       40.06000000       7.83200000      24.76900000
H       40.42600000       7.41200000      24.27300000
H        8.68300000      23.27200000      25.68800000
H        9.01500000      22.65400000      25.93700000
H       31.66200000      19.17200000      26.16000000
H       31.11400000      19.23600000      26.66100000
H       12.33100000      24.10700000      22.54600000
H       12.22700000      24.73000000      22.94300000
H       18.13600000       9.87500000      25.94700000
H       17.71100000       9.31900000      25.69000000
H        7.58900000      21.85000000      23.69700000
H        7.39400000      22.52200000      23.95300000
H       17.11700000      14.76800000      23.33600000
H       17.29100000      14.71900000      22.61300000
H       14.39300000      15.58900000      25.42000000
H       14.08800000      16.07000000      24.94000000
H        0.00000000      32.61900000      45.04700000
H        0.59900000      32.62000000      45.49000000
H       29.25700000       0.42300000       1.00600000
H       29.29700000       1.16600000       1.04000000
H       40.42200000      33.41300000       0.74400000
H       40.41900000      33.38300000       0.00000000
H       15.14700000       6.62800000      22.59900000
H       14.82500000       6.00800000      22.85700000
H       41.46400000      27.32000000      34.69000000
H       40.97100000      27.38800000      34.13600000
H       39.44300000      45.31000000      44.75100000
H       39.37400000      45.40100000      45.48700000
H       45.03200000       8.68600000       0.60700000
H       45.49000000       8.41800000       0.08400000
H       10.58500000      22.92300000      38.96800000
H       10.85100000      23.13700000      38.30600000
H       27.02800000      12.49300000      30.94300000
H       26.80600000      13.20300000      30.97900000
H        8.47100000      18.00900000      19.38400000
H        8.20400000      18.61600000      19.04600000
H       15.85400000      25.29200000      32.32800000
H       16.55000000      25.34900000      32.58800000
H       10.59600000      25.91300000      29.02000000
H        9.99100000      25.52600000      28.82100000
H       23.27500000       9.05000000      13.17800000
H       22.84000000       8.44700000      13.13700000
H       45.38500000       0.03900000       3.35100000
H       45.43300000       0.07500000       4.09400000
H        0.00100000      45.29800000      23.71400000
H        0.33800000      45.49000000      23.07700000
H       16.37300000      19.64800000       8.27800000
H       15.82000000      20.07600000       8.02100000
H       27.76300000      32.63900000      21.54100000
H       28.10500000      32.25000000      22.07600000
H       40.26400000      23.75200000       1.62100000
H       40.18900000      23.26100000       1.06500000
H       27.53300000       9.03500000      34.70000000
H       27.20400000       9.70000000      34.77700000
H       19.61000000      29.30200000      26.78400000
H       19.35900000      28.60200000      26.83300000
H       36.48800000      33.27300000      37.10300000
H       35.79500000      33.11700000      36.87700000
H        8.73100000      32.09900000      33.98000000
H        8.30900000      32.29300000      33.39700000
H        1.58400000      41.78900000      43.85300000
H        1.68600000      41.96300000      43.13600000
H        3.56900000      36.19300000      20.66100000
H        3.54100000      36.20200000      21.40500000
H       36.75100000      25.16500000      28.90500000
H       36.96900000      25.71600000      28.45300000
H       22.02200000      36.75400000      31.90800000
H       21.94100000      37.00100000      32.60700000
H        1.70700000      21.56700000      20.42100000
H        1.92600000      22.23200000      20.16600000
H       22.88800000      20.19900000      26.12600000
H       22.67900000      20.66200000      25.58200000
H       29.31900000       3.90400000      27.47200000
H       28.81300000       3.93300000      26.92600000
H       18.83400000      20.21500000       4.03300000
H       18.87800000      19.55200000       4.37000000
H        4.11700000      23.52500000      32.76400000
H        4.23600000      24.09100000      32.29400000
H       21.66100000       6.83400000      16.54100000
H       21.56600000       6.85100000      15.80200000
H       18.24500000      12.40800000      36.82100000
H       18.77000000      12.93500000      36.78300000
H        2.95300000      11.42400000      21.99200000
H        2.99300000      11.43600000      21.24800000
H       34.10900000      10.90500000      32.11000000
H       34.67400000      11.27600000      32.42300000
H       15.92800000      17.98300000      30.70500000
H       15.81100000      18.14400000      31.42300000
H       17.90700000      21.32000000      26.44400000
H       17.93600000      22.00900000      26.72500000
H        0.21000000      45.20600000      40.63700000
H        0.20900000      45.49000000      41.32600000
H       26.43900000      20.20700000      21.66500000
H       26.53900000      19.68200000      21.14700000
H       24.27900000       9.07100000      25.57900000
H       24.05200000       9.76000000      25.75000000
H       14.78300000      10.39600000      21.30700000
H       15.26200000      10.96600000      21.32800000
O       18.38700000      10.44800000      40.57500000
O       19.39300000      10.16400000      39.99500000
O        1.42700000      45.06400000      13.92800000
O        0.48100000      45.23800000      14.63900000
O       32.69800000      20.66600000      19.54500000
O       31.98200000      21.04300000      18.66400000
O       32.30000000      37.37200000       0.00200000
O       32.71400000      36.67500000       0.88100000
O       37.16700000       0.16200000       0.95400000
O       36.43100000       0.10600000       0.01300000
O       11.02500000      44.78900000      44.62800000
O       11.46700000      45.49000000      45.49000000
O       12.00100000      19.20200000      22.06000000
O       12.15100000      19.56300000      20.93000000
O       30.62200000      36.97900000       7.58000000
O       31.51900000      36.67300000       8.31000000
O        8.07500000      28.65900000      25.08900000
O        8.02300000      27.49400000      25.35600000
O       37.69400000      14.21600000       5.49500000
O       38.08900000      14.58600000       4.42900000
O        8.59500000       2.66600000       0.05600000
O        7.77900000       1.79800000      -0.05600000
O        6.67900000      27.97300000      45.06600000
O        5.49000000      28.07300000      44.97700000
O       25.49700000      35.19700000      35.93200000
O       25.70900000      35.90100000      34.98800000
O       26.18700000      18.06500000      45.49100000
O       26.54800000      17.71700000      44.40500000
O       45.04900000      11.89000000      38.81100000
O       45.48900000      11.45100000      39.83300000
O        6.95500000      26.31100000      19.29800000
O        6.92700000      25.57000000      18.35900000
O       30.91300000      32.51700000      25.51500000
O       30.54900000      32.56900000      26.65300000
O       35.33300000      37.94900000      40.10900000
O       35.83500000      37.55400000      39.09800000
O        7.81500000      40.35800000       1.37800000
O        7.72400000      40.42700000       2.56800000
O       31.67600000       0.27300000      18.27700000
O       30.51200000       0.00200000      18.32500000
O       15.51300000      21.25700000      35.89500000
O       14.73300000      21.72900000      35.12100000
O       36.90400000      23.83000000      36.95300000
O       37.62100000      23.91400000      35.99900000
O       33.80200000       6.11400000      42.61700000
O       33.05600000       6.68300000      41.87500000
O       13.68800000       8.81400000       7.15400000
O       13.43800000       9.98300000       7.18400000
O       17.44700000      29.27800000      38.00300000
O       18.02700000      28.23300000      38.02800000
O       32.66300000       7.93200000      38.17600000
O       31.67100000       8.45300000      38.59600000
O       45.48500000      38.56100000       0.02000000
O       44.94400000      38.87600000       1.03900000
O       11.06900000      13.65700000      37.72700000
O       11.21800000      12.47200000      37.65200000
O       32.39700000      23.22800000      10.57100000
O       32.97400000      22.95400000       9.56000000
O       44.63200000      41.99200000      44.31700000
O       45.12800000      41.73100000      45.37400000
O       35.73600000      10.27500000      29.74300000
O       36.16300000       9.77600000      28.74400000
O       44.02400000      44.71800000      12.03900000
O       44.75800000      45.48300000      11.48600000
O        8.09900000      21.50200000      34.09800000
O        8.35500000      21.06700000      35.18200000
O       16.75300000      29.52400000      24.00100000
O       16.53800000      29.19700000      25.13100000
O       40.74200000      10.04200000      14.74200000
O       39.99900000       9.49900000      15.50600000
O       27.65200000       8.49900000      39.09700000
O       26.93500000       8.50300000      40.05400000
O       14.68000000       9.89000000      36.89500000
O       14.65400000      10.13300000      38.06500000
O        7.77900000       8.95500000      16.10600000
O        6.74000000       8.68900000      15.57800000
O       31.52000000      44.80400000      43.64500000
O       31.47900000      44.98600000      44.82600000
O        7.54800000       9.47600000      28.33400000
O        6.62600000       8.78900000      28.66600000
O       11.52100000      18.13100000      18.35000000
O       11.82800000      17.27400000      19.12500000
O        4.30500000       8.84200000      19.49000000
O        5.37800000       8.38900000      19.22100000
O        9.55700000      36.44900000      33.08900000
O       10.33300000      36.92700000      33.86400000
O       45.48000000      27.89100000      44.62500000
O       44.65300000      28.56500000      45.16700000
O       12.65800000      33.79600000      36.23400000
O       12.31800000      32.66500000      36.42000000
O       10.74400000      21.40400000      27.80200000
O       10.78100000      22.44700000      28.38500000
O       23.41900000      31.46200000      21.17400000
O       24.22500000      31.44100000      20.29000000
O       37.21700000      45.34400000       4.70200000
O       37.27400000      45.37200000       5.89600000
O       38.47700000      22.12600000      30.98800000
O       38.16800000      22.47300000      29.88600000
O       23.59400000      22.60800000      28.48400000
O       23.63600000      21.90100000      29.44700000
