4
Properties=species:S:1:pos:R:3:initial_charges:R:1 connectivity="_JSON [[0, 1, null], [0, 3, null], [2, 3, null]]" pbc="F F F"
O        0.52337101      -0.23892422       0.34028954       0.00000000
H       -0.07247997       0.10122752       1.01783311       0.00000000
H        2.31600020       0.10323325       0.75117146       0.00000000
O        1.68683754      -0.52575586       1.12310520       0.00000000
4
Properties=species:S:1:pos:R:3:initial_charges:R:1 connectivity="_JSON [[0, 1, null], [2, 3, null]]" pbc="F F F"
O        0.36244407      -0.15718689       0.21921553       0.00000000
H       -0.12973846       0.06486937       1.02184167       0.00000000
H        2.36882821       0.07234737       0.72493630       0.00000000
O        1.85219495      -0.54024913       1.26640581       0.00000000
4
Properties=species:S:1:pos:R:3:initial_charges:R:1 connectivity="_JSON [[0, 1, null], [2, 3, null]]" pbc="F F F"
O       -0.06244094       0.12149867      -0.01115330       0.00000000
H        0.02176280      -0.10195512       0.93518786       0.00000000
H        2.19684901      -0.10800857       0.70411840       0.00000000
O        2.29755835      -0.47175374       1.60424540       0.00000000
